LAMMPS (2 Aug 2023)
OMP_NUM_THREADS environment is not set. Defaulting to 1 thread. (src/comm.cpp:98)
  using 1 OpenMP thread(s) per MPI task
# ------------------------------- Initialization Section --------------------

include         system.in.init
units real
atom_style      full
bond_style      harmonic
angle_style     harmonic
dihedral_style  harmonic
improper_style  harmonic
#pair_style      lj/cut/coul/cut ${cutoff}  # for non-period sims
pair_style      lj/cut/coul/long   12
kspace_style    pppm 0.0001
special_bonds lj 0.0 0.0 0.5 coul 0.0 0.0 1.0 angle yes dihedral yes

# ------------------------------- Atom Definition Section -------------------

read_data       system_equilibrated.data
Reading data file ...
  orthogonal box = (-0.79587726 -0.79587726 -0.79587726) to (50.795877 50.795877 50.795877)
  2 by 2 by 2 MPI processor grid
  reading atoms ...
  12000 atoms
  reading velocities ...
  12000 velocities
  scanning bonds ...
  3 = max bonds/atom
  scanning angles ...
  6 = max angles/atom
  scanning dihedrals ...
  10 = max dihedrals/atom
  scanning impropers ...
  2 = max impropers/atom
  reading bonds ...
  11500 bonds
  reading angles ...
  19500 angles
  reading dihedrals ...
  20500 dihedrals
  reading impropers ...
  2500 impropers
Finding 1-2 1-3 1-4 neighbors ...
  special bond factors lj:    0        0        0.5     
  special bond factors coul:  0        0        1       
     4 = max # of 1-2 neighbors
     7 = max # of 1-3 neighbors
    14 = max # of 1-4 neighbors
  39000 = # of 1-3 neighbors before angle trim
  39000 = # of 1-3 neighbors after angle trim
  56500 = # of 1-4 neighbors before dihedral trim
  41000 = # of 1-4 neighbors after dihedral trim
    15 = max # of special neighbors
  special bonds CPU = 0.003 seconds
  read_data CPU = 0.344 seconds

# ------------------------------- Settings Section --------------------------

include         system.in.settings
#     atom_id      mass
mass 1            15.999400000
mass 2           15.999400000
mass 3           15.999400000
mass 4           15.999400000
mass 5           15.999400000
mass 6            14.006700000
mass 7           14.006700000
mass 8           14.006700000
mass 9           14.006700000
mass 10           14.006700000
mass 11           14.006700000
mass 12            12.011000000
mass 13          12.011000000
mass 14          13.019000000
mass 15          14.027000000
mass 16          15.035000000
mass 17          16.043000000
mass 18         14.027000000
mass 19          12.011000000
mass 20            1.008000000
mass 21             1.008000000
mass 22           1.000000000
mass 23            32.060000000
mass 24         63.546000000
mass 25         63.546000000
mass 26           55.847000000
mass 27         65.370000000
mass 28         24.305000000
mass 29         40.080000000
mass 30           39.948000000
mass 31            18.998400000
mass 32           35.453000000
mass 33           79.904000000
mass 34         12.011000000
mass 35         15.999400000
mass 36          22.989800000
mass 37          35.453000000
mass 38         12.011000000
mass 39        35.453000000
mass 40          1.008000000
mass 41        32.060000000
mass 42        12.011000000
mass 43        15.999400000
mass 44         12.011000000
mass 45        35.453000000
mass 46         18.998400000
mass 47         12.011000000
mass 48        13.019000000
mass 49         15.999400000
mass 50        12.011000000
mass 51        15.999400000
mass 52        14.006700000
mass 53         15.035000000
mass 54            126.904470000
mass 55        35.453000000
mass 56            10.811000000
mass 57           78.960000000
mass 58          1.008000000
mass 59        35.453000000
mass 60        79.904000000
mass 61        15.999400000
mass 62         14.006700000
mass 63         12.011000000
mass 64         12.011000000
mass 65         14.006700000
mass 66         14.006700000
mass 67         15.999400000
mass 68           28.080000000
mass 69            30.973800000

#           atom_i       atom_j       epsilon                  sigma
pair_coeff 1      1      3.057142739336137782E-01 2.760065475311210825E+00
pair_coeff 1      2     3.550276087952778381E-01 2.692123523613648928E+00
pair_coeff 2     2     4.122954462841457168E-01 2.625854035428913935E+00
pair_coeff 1      3     2.204919358198741963E-01 2.914561468303898728E+00
pair_coeff 2     3     1.353372555548385814E-01 3.161567388722811067E+00
pair_coeff 3     3     2.030610329881481768E-01 2.954841833242532800E+00
pair_coeff 1      4     2.779220672123761116E-01 2.804259278747785356E+00
pair_coeff 2     4     3.227523716320707670E-01 2.735229449503375765E+00
pair_coeff 3     4     2.030610329881481768E-01 2.954841833242532800E+00
pair_coeff 4     4     2.526564247385237327E-01 2.849160707521389835E+00
pair_coeff 1      5     1.928839685607480758E-01 3.016736863519489109E+00
pair_coeff 2     5     1.183915722290306144E-01 3.272402037762298210E+00
pair_coeff 3     5     1.776356026680076250E-01 3.058429331874637391E+00
pair_coeff 4     5     1.776356026680076250E-01 3.058429331874637391E+00
pair_coeff 5     5     1.553937103090970162E-01 3.165648283720967182E+00
pair_coeff 1      6      1.694765154967038112E-01 3.064144913095461664E+00
pair_coeff 2     6      9.205677104655286824E-02 3.392227199027124662E+00
pair_coeff 3     6      1.381226695164660401E-01 3.170419479686534814E+00
pair_coeff 4     6      1.381226695164660401E-01 3.170419479686534814E+00
pair_coeff 5     6      1.208282223360083590E-01 3.281564455306036798E+00
pair_coeff 6      6      1.529146624006174071E-01 3.136473222385702364E+00
pair_coeff 1      7     1.295153862773237297E-01 3.204601223054668324E+00
pair_coeff 2     7     7.949613606375653674E-02 3.476187697824344891E+00
pair_coeff 3     7     1.192765986091082336E-01 3.248890049401691016E+00
pair_coeff 4     7     1.192765986091082336E-01 3.248890049401691016E+00
pair_coeff 5     7     1.043418826661619003E-01 3.362785957386363656E+00
pair_coeff 6      7     8.113226830524199185E-02 3.485920696025768706E+00
pair_coeff 7     7     7.006222102981565780E-02 3.572200188298519929E+00
pair_coeff 1      8     9.498357859321329699E-02 3.374577969603924643E+00
pair_coeff 2     8     3.498417334104661491E-02 3.985801065571819457E+00
pair_coeff 3     8     8.747468933197311003E-02 3.421215940224123120E+00
pair_coeff 4     8     8.747468933197311003E-02 3.421215940224123120E+00
pair_coeff 5     8     7.652191525386708992E-02 3.541153054130216749E+00
pair_coeff 6      8     1.529146624006174071E-01 3.136473222385702364E+00
pair_coeff 7     8     5.138200694820247577E-02 3.761674922833770918E+00
pair_coeff 8     8     1.529146624006174071E-01 3.136473222385702364E+00
pair_coeff 1      9     1.582887664986303011E-01 3.099220950402574282E+00
pair_coeff 2     9     9.715714619416199183E-02 3.361876561464794300E+00
pair_coeff 3     9     1.457753106303604218E-01 3.142053380689358466E+00
pair_coeff 4     9     1.457753106303604218E-01 3.142053380689358466E+00
pair_coeff 5     9     1.275226702872701012E-01 3.252203929734818200E+00
pair_coeff 6      9     9.915676463161025855E-02 3.371289499249087385E+00
pair_coeff 7     9     8.562737496854166963E-02 3.454731772227725983E+00
pair_coeff 8     9     6.279712962164887835E-02 3.637975809775669589E+00
pair_coeff 9     9     1.046505125905587974E-01 3.341126193637144581E+00
pair_coeff 1      10     1.356655582513865699E-01 3.179918240687398701E+00
pair_coeff 2     10     4.996808371058240883E-02 3.755883439744826191E+00
pair_coeff 3     10     1.249405711687586185E-01 3.223865938686866883E+00
pair_coeff 4     10     1.249405711687586185E-01 3.223865938686866883E+00
pair_coeff 5     10     1.092966648039405131E-01 3.336884579737899870E+00
pair_coeff 6      10     1.529146624006174071E-01 3.136473222385702364E+00
pair_coeff 7     10     7.338919800609181032E-02 3.544685827501989461E+00
pair_coeff 8     10     1.529146624006174071E-01 3.136473222385702364E+00
pair_coeff 9     10     8.969347936648916497E-02 3.428122195097171421E+00
pair_coeff 10     10     1.529146624006174071E-01 3.136473222385702364E+00
pair_coeff 1      11     1.468798483487794293E-01 3.138102939733744545E+00
pair_coeff 2     11     5.409850998504587422E-02 3.706494309430008460E+00
pair_coeff 3     11     1.352683199952084137E-01 3.181472734127216206E+00
pair_coeff 4     11     1.352683199952084137E-01 3.181472734127216206E+00
pair_coeff 5     11     1.183312681445888304E-01 3.293005202223091565E+00
pair_coeff 6      11     1.529146624006174071E-01 3.136473222385702364E+00
pair_coeff 7     11     7.945564380901472268E-02 3.498073904350435193E+00
pair_coeff 8     11     1.529146624006174071E-01 3.136473222385702364E+00
pair_coeff 9     11     9.710765810444493829E-02 3.383043060841536942E+00
pair_coeff 10     11     1.529146624006174071E-01 3.136473222385702364E+00
pair_coeff 11     11     1.529146624006174071E-01 3.136473222385702364E+00
pair_coeff 1      12      1.423703976828447626E-01 3.143928959384971744E+00
pair_coeff 2     12      1.653354984123153737E-01 3.066537799135407028E+00
pair_coeff 3     12      1.294276342571315797E-01 3.194269134171567437E+00
pair_coeff 4     12      1.294276342571315797E-01 3.194269134171567437E+00
pair_coeff 5     12      1.015029251390483361E-01 3.367009660356621747E+00
pair_coeff 6      12      1.006900148654086141E-01 3.351458328501519368E+00
pair_coeff 7     12      1.006900148654086141E-01 3.351458328501519368E+00
pair_coeff 8     12      1.006900148654086141E-01 3.351458328501519368E+00
pair_coeff 9     12      1.006900148654086141E-01 3.351458328501519368E+00
pair_coeff 10     12      1.006900148654086141E-01 3.351458328501519368E+00
pair_coeff 11     12      1.006900148654086141E-01 3.351458328501519368E+00
pair_coeff 12      12      6.630154972997068241E-02 3.581179283634555510E+00
pair_coeff 1      13    2.260833879260638890E-02 4.280821861878790990E+00
pair_coeff 2     13    2.625518382604388745E-02 4.175444871815595427E+00
pair_coeff 3     13    2.055303526600580841E-02 4.349365815492619802E+00
pair_coeff 4     13    2.055303526600580841E-02 4.349365815492619802E+00
pair_coeff 5     13    1.611860721985387823E-02 4.584571963747981371E+00
pair_coeff 6      13    1.598951752723829639E-02 4.563397031920107594E+00
pair_coeff 7     13    1.598951752723829639E-02 4.563397031920107594E+00
pair_coeff 8     13    1.598951752723829639E-02 4.563397031920107594E+00
pair_coeff 9     13    1.598951752723829639E-02 4.563397031920107594E+00
pair_coeff 10     13    1.598951752723829639E-02 4.563397031920107594E+00
pair_coeff 11     13    1.598951752723829639E-02 4.563397031920107594E+00
pair_coeff 12      13    1.052864867392752299E-02 4.876188605638604123E+00
pair_coeff 13    13    1.671943466637953492E-03 6.639493148644640463E+00
pair_coeff 1      14    8.326657659937299061E-02 3.721998163273249283E+00
pair_coeff 2     14    9.669791731433396986E-02 3.630377213810442427E+00
pair_coeff 3     14    7.569688781761180207E-02 3.781594305716371451E+00
pair_coeff 4     14    7.569688781761180207E-02 3.781594305716371451E+00
pair_coeff 5     14    5.936487660854102705E-02 3.986096356968000354E+00
pair_coeff 6      14    5.888943890049144064E-02 3.967685626525647269E+00
pair_coeff 7     14    5.888943890049144064E-02 3.967685626525647269E+00
pair_coeff 8     14    5.888943890049144064E-02 3.967685626525647269E+00
pair_coeff 9     14    5.888943890049144064E-02 3.967685626525647269E+00
pair_coeff 10     14    5.888943890049144064E-02 3.967685626525647269E+00
pair_coeff 11     14    5.888943890049144064E-02 3.967685626525647269E+00
pair_coeff 12      14    3.877704325548127218E-02 4.239645007324696735E+00
pair_coeff 13    14    6.157772581688245907E-03 5.772765628111153013E+00
pair_coeff 14    14    2.267909407489697785E-02 5.019181773522026546E+00
pair_coeff 1      15    1.731972553779473067E-01 3.351793382524915543E+00
pair_coeff 2     15    2.011348918568659772E-01 3.269285418082499728E+00
pair_coeff 3     15    1.574520503435884455E-01 3.405461854969619839E+00
pair_coeff 4     15    1.574520503435884455E-01 3.405461854969619839E+00
pair_coeff 5     15    1.234809225305322361E-01 3.589623316644059425E+00
pair_coeff 6      15    1.224919962470180784E-01 3.573043790873992709E+00
pair_coeff 7     15    1.224919962470180784E-01 3.573043790873992709E+00
pair_coeff 8     15    1.224919962470180784E-01 3.573043790873992709E+00
pair_coeff 9     15    1.224919962470180784E-01 3.573043790873992709E+00
pair_coeff 10     15    1.224919962470180784E-01 3.573043790873992709E+00
pair_coeff 11     15    1.224919962470180784E-01 3.573043790873992709E+00
pair_coeff 12      15    8.065754277175206377E-02 3.817953007077415251E+00
pair_coeff 13    15    1.280837226587758920E-02 5.198583336794016851E+00
pair_coeff 14    15    4.717327178141728083E-02 4.519953937695086132E+00
pair_coeff 15    15    9.812197803026967424E-02 4.070381293353582564E+00
pair_coeff 1      16    2.517150719017874350E-01 3.216286733597559344E+00
pair_coeff 2     16    2.923180488930291476E-01 3.137114409660223480E+00
pair_coeff 3     16    2.288318835470794788E-01 3.267785491497223305E+00
pair_coeff 4     16    2.288318835470794788E-01 3.267785491497223305E+00
pair_coeff 5     16    1.794601723072659361E-01 3.444501654585188533E+00
pair_coeff 6      16    1.780229229119614787E-01 3.428592407594721170E+00
pair_coeff 7     16    1.780229229119614787E-01 3.428592407594721170E+00
pair_coeff 8     16    1.780229229119614787E-01 3.428592407594721170E+00
pair_coeff 9     16    1.780229229119614787E-01 3.428592407594721170E+00
pair_coeff 10     16    1.780229229119614787E-01 3.428592407594721170E+00
pair_coeff 11     16    1.780229229119614787E-01 3.428592407594721170E+00
pair_coeff 12      16    1.172230999498745652E-01 3.663600408719620116E+00
pair_coeff 13    16    1.861496210673063006E-02 4.988414472922134912E+00
pair_coeff 14    16    6.855895881485152277E-02 4.337220773235620719E+00
pair_coeff 15    16    1.426049200441300291E-01 3.905823498176049124E+00
pair_coeff 16    16    2.072539060975635561E-01 3.747918462531858008E+00
pair_coeff 1      17    3.038575184606040480E-01 3.199953592715625295E+00
pair_coeff 2     17    3.528713488103634721E-01 3.121183326439165739E+00
pair_coeff 3     17    2.762341076914582305E-01 3.251190826523163935E+00
pair_coeff 4     17    2.762341076914582305E-01 3.251190826523163935E+00
pair_coeff 5     17    2.166351113098009262E-01 3.427009578955020341E+00
pair_coeff 6      17    2.149001375898457467E-01 3.411181123260212722E+00
pair_coeff 7     17    2.149001375898457467E-01 3.411181123260212722E+00
pair_coeff 8     17    2.149001375898457467E-01 3.411181123260212722E+00
pair_coeff 9     17    2.149001375898457467E-01 3.411181123260212722E+00
pair_coeff 10     17    2.149001375898457467E-01 3.411181123260212722E+00
pair_coeff 11     17    2.149001375898457467E-01 3.411181123260212722E+00
pair_coeff 12      17    1.415057111515590771E-01 3.644995692608442361E+00
pair_coeff 13    17    2.247102705950117241E-02 4.963082006288297876E+00
pair_coeff 14    17    8.276085709262456791E-02 4.315195237643504100E+00
pair_coeff 15    17    1.721453419435647891E-01 3.885988710192354478E+00
pair_coeff 16    17    2.501862805523388245E-01 3.728885557404626905E+00
pair_coeff 17    17    3.020120399909287934E-01 3.709949306321822071E+00
pair_coeff 1      18   1.871351497334000635E-01 3.303836737441132154E+00
pair_coeff 2     18   2.173210425425619319E-01 3.222509276900889397E+00
pair_coeff 3     18   1.701228633940000401E-01 3.356737334425898833E+00
pair_coeff 4     18   1.701228633940000401E-01 3.356737334425898833E+00
pair_coeff 5     18   1.334179394271841901E-01 3.538263858666045536E+00
pair_coeff 6      18   1.323494301847202848E-01 3.521921548721142159E+00
pair_coeff 7     18   1.323494301847202848E-01 3.521921548721142159E+00
pair_coeff 8     18   1.323494301847202848E-01 3.521921548721142159E+00
pair_coeff 9     18   1.323494301847202848E-01 3.521921548721142159E+00
pair_coeff 10     18   1.323494301847202848E-01 3.521921548721142159E+00
pair_coeff 11     18   1.323494301847202848E-01 3.521921548721142159E+00
pair_coeff 12      18   8.714838644978782634E-02 3.763326663382849269E+00
pair_coeff 13    18   1.383911457826323375E-02 5.124203269895830637E+00
pair_coeff 14    18   5.096949867344095775E-02 4.455283535302380749E+00
pair_coeff 15    18   1.060182565293115581E-01 4.012143267090165999E+00
pair_coeff 16    18   1.540809235512614617E-01 3.849939924851243589E+00
pair_coeff 17    18   1.859985845053877540E-01 3.830388928193292131E+00
pair_coeff 18   18   1.145499809843573136E-01 3.954738496352121491E+00
pair_coeff 1      19    1.916455257379301724E-01 3.213399033460031529E+00
pair_coeff 2     19    2.225589661339335279E-01 3.134297793337560201E+00
pair_coeff 3     19    1.742232052163001366E-01 3.264851553886924496E+00
pair_coeff 4     19    1.742232052163001366E-01 3.264851553886924496E+00
pair_coeff 5     19    1.366336104191038237E-01 3.441409054725308003E+00
pair_coeff 6      19    1.355393477120732659E-01 3.425514091640016634E+00
pair_coeff 7     19    1.355393477120732659E-01 3.425514091640016634E+00
pair_coeff 8     19    1.355393477120732659E-01 3.425514091640016634E+00
pair_coeff 9     19    1.355393477120732659E-01 3.425514091640016634E+00
pair_coeff 10     19    1.355393477120732659E-01 3.425514091640016634E+00
pair_coeff 11     19    1.355393477120732659E-01 3.425514091640016634E+00
pair_coeff 12      19    8.924885764206048899E-02 3.660311093966183371E+00
pair_coeff 13    19    1.417266821800791839E-02 4.983935691534572499E+00
pair_coeff 14    19    5.219797768503835894E-02 4.333326657424202644E+00
pair_coeff 15    19    1.085735338300921060E-01 3.902316706653073286E+00
pair_coeff 16    19    1.577946187139902257E-01 3.744553443938634096E+00
pair_coeff 17    19    1.904815667437584348E-01 3.725537627251366946E+00
pair_coeff 18   19    1.173108919424925706E-01 3.846483307649072980E+00
pair_coeff 19    19    1.201383470349284138E-01 3.741191446582464053E+00
pair_coeff 1      20     9.300420140216696108E-02 2.559445618447809156E+00
pair_coeff 2     20     1.080062726770026210E-01 2.496442138227286112E+00
pair_coeff 3     20     8.454927400196994569E-02 2.600427123263571172E+00
pair_coeff 4     20     8.454927400196994569E-02 2.600427123263571172E+00
pair_coeff 5     20     6.630731279946860957E-02 2.741053705029336207E+00
pair_coeff 6      20     6.577627494299018163E-02 2.728393499060382865E+00
pair_coeff 7     20     6.577627494299018163E-02 2.728393499060382865E+00
pair_coeff 8     20     6.577627494299018163E-02 2.728393499060382865E+00
pair_coeff 9     20     6.577627494299018163E-02 2.728393499060382865E+00
pair_coeff 10     20     6.577627494299018163E-02 2.728393499060382865E+00
pair_coeff 11     20     6.577627494299018163E-02 2.728393499060382865E+00
pair_coeff 12      20     4.331183156556572822E-02 2.915407359639444529E+00
pair_coeff 13    20     6.877894405717501110E-03 3.969663348839890027E+00
pair_coeff 14    20     2.533130481764387168E-02 3.451458661424102736E+00
pair_coeff 15    20     5.268995854924014149E-02 3.108162818448523712E+00
pair_coeff 16    20     7.657659860592054557E-02 2.982505691119483604E+00
pair_coeff 17    20     9.243934043658488808E-02 2.967359751198966222E+00
pair_coeff 18   20     5.693013587912872792E-02 3.063691980262590153E+00
pair_coeff 19    20     5.830227959007599353E-02 2.979827888172235539E+00
pair_coeff 20     20     2.829367882355780447E-02 2.373408142809749322E+00
pair_coeff 1      21      0.000000000000000000E+00 0.000000000000000000E+00
pair_coeff 2     21      0.000000000000000000E+00 0.000000000000000000E+00
pair_coeff 3     21      0.000000000000000000E+00 0.000000000000000000E+00
pair_coeff 4     21      0.000000000000000000E+00 0.000000000000000000E+00
pair_coeff 5     21      0.000000000000000000E+00 0.000000000000000000E+00
pair_coeff 6      21      0.000000000000000000E+00 0.000000000000000000E+00
pair_coeff 7     21      0.000000000000000000E+00 0.000000000000000000E+00
pair_coeff 8     21      0.000000000000000000E+00 0.000000000000000000E+00
pair_coeff 9     21      0.000000000000000000E+00 0.000000000000000000E+00
pair_coeff 10     21      0.000000000000000000E+00 0.000000000000000000E+00
pair_coeff 11     21      0.000000000000000000E+00 0.000000000000000000E+00
pair_coeff 12      21      0.000000000000000000E+00 0.000000000000000000E+00
pair_coeff 13    21      0.000000000000000000E+00 0.000000000000000000E+00
pair_coeff 14    21      0.000000000000000000E+00 0.000000000000000000E+00
pair_coeff 15    21      0.000000000000000000E+00 0.000000000000000000E+00
pair_coeff 16    21      0.000000000000000000E+00 0.000000000000000000E+00
pair_coeff 17    21      0.000000000000000000E+00 0.000000000000000000E+00
pair_coeff 18   21      0.000000000000000000E+00 0.000000000000000000E+00
pair_coeff 19    21      0.000000000000000000E+00 0.000000000000000000E+00
pair_coeff 20     21      0.000000000000000000E+00 0.000000000000000000E+00
pair_coeff 21      21      0.000000000000000000E+00 0.000000000000000000E+00
pair_coeff 1      22    0.000000000000000000E+00 0.000000000000000000E+00
pair_coeff 2     22    0.000000000000000000E+00 0.000000000000000000E+00
pair_coeff 3     22    0.000000000000000000E+00 0.000000000000000000E+00
pair_coeff 4     22    0.000000000000000000E+00 0.000000000000000000E+00
pair_coeff 5     22    0.000000000000000000E+00 0.000000000000000000E+00
pair_coeff 6      22    0.000000000000000000E+00 0.000000000000000000E+00
pair_coeff 7     22    0.000000000000000000E+00 0.000000000000000000E+00
pair_coeff 8     22    0.000000000000000000E+00 0.000000000000000000E+00
pair_coeff 9     22    0.000000000000000000E+00 0.000000000000000000E+00
pair_coeff 10     22    0.000000000000000000E+00 0.000000000000000000E+00
pair_coeff 11     22    0.000000000000000000E+00 0.000000000000000000E+00
pair_coeff 12      22    0.000000000000000000E+00 0.000000000000000000E+00
pair_coeff 13    22    0.000000000000000000E+00 0.000000000000000000E+00
pair_coeff 14    22    0.000000000000000000E+00 0.000000000000000000E+00
pair_coeff 15    22    0.000000000000000000E+00 0.000000000000000000E+00
pair_coeff 16    22    0.000000000000000000E+00 0.000000000000000000E+00
pair_coeff 17    22    0.000000000000000000E+00 0.000000000000000000E+00
pair_coeff 18   22    0.000000000000000000E+00 0.000000000000000000E+00
pair_coeff 19    22    0.000000000000000000E+00 0.000000000000000000E+00
pair_coeff 20     22    0.000000000000000000E+00 0.000000000000000000E+00
pair_coeff 21      22    0.000000000000000000E+00 0.000000000000000000E+00
pair_coeff 22    22    0.000000000000000000E+00 0.000000000000000000E+00
pair_coeff 1      23      3.731714874568097806E-01 3.021498329079459921E+00
pair_coeff 2     23      4.333660288663451210E-01 2.947120929208018492E+00
pair_coeff 3     23      3.392468067789179420E-01 3.069878160802191225E+00
pair_coeff 4     23      3.392468067789179420E-01 3.069878160802191225E+00
pair_coeff 5     23      2.660524812168876263E-01 3.235891839220214727E+00
pair_coeff 6      23      2.639217367579247409E-01 3.220946106087509531E+00
pair_coeff 7     23      2.639217367579247409E-01 3.220946106087509531E+00
pair_coeff 8     23      2.639217367579247409E-01 3.220946106087509531E+00
pair_coeff 9     23      2.639217367579247409E-01 3.220946106087509531E+00
pair_coeff 10     23      2.639217367579247409E-01 3.220946106087509531E+00
pair_coeff 11     23      2.639217367579247409E-01 3.220946106087509531E+00
pair_coeff 12      23      1.737850588051431666E-01 3.441721286142719993E+00
pair_coeff 13    23      2.759696924716207450E-02 4.686300458613273712E+00
pair_coeff 14    23      1.016397168676915763E-01 4.074545090238809841E+00
pair_coeff 15    23      2.114139996840987690E-01 3.669274586167817986E+00
pair_coeff 16    23      3.072571214561132247E-01 3.520932774360979955E+00
pair_coeff 17    23      3.709050306349177539E-01 3.503052561617904459E+00
pair_coeff 18   23      2.284273523866607036E-01 3.616775497184223198E+00
pair_coeff 19    23      2.339329629063890137E-01 3.517771551839822930E+00
pair_coeff 20     23      1.135259918695059600E-01 2.801875799210098883E+00
pair_coeff 21      23      0.000000000000000000E+00 0.000000000000000000E+00
pair_coeff 22    23      0.000000000000000000E+00 0.000000000000000000E+00
pair_coeff 23      23      4.555134350088204109E-01 3.307694050845144673E+00
pair_coeff 1      24   2.223093289799977224E-01 2.528643669394098126E+00
pair_coeff 2     24   8.188055467646591923E-02 2.986646248124879222E+00
pair_coeff 3     24   2.047347528503646874E-01 2.563590501331129090E+00
pair_coeff 4     24   2.047347528503646874E-01 2.563590501331129090E+00
pair_coeff 5     24   1.790997547608397245E-01 2.653461953861128819E+00
pair_coeff 6      24   5.583840364210079787E-01 2.182297559899140094E+00
pair_coeff 7     24   5.583840364210079787E-01 2.182297559899140094E+00
pair_coeff 8     24   5.583840364210079787E-01 2.182297559899140094E+00
pair_coeff 9     24   1.469768559452463708E-01 2.726013321860754957E+00
pair_coeff 10     24   5.583840364210079787E-01 2.182297559899140094E+00
pair_coeff 11     24   5.583840364210079787E-01 2.182297559899140094E+00
pair_coeff 12      24   3.676802214070164498E-01 2.331880049283297840E+00
pair_coeff 13    24   5.838741162631456982E-02 3.175123618634094314E+00
pair_coeff 14    24   2.150410044373349261E-01 2.760639115110234521E+00
pair_coeff 15    24   4.472924585510560935E-01 2.486054939218036886E+00
pair_coeff 16    24   6.500695009260647472E-01 2.385548453460561547E+00
pair_coeff 17    24   7.847305442853571567E-01 2.373434017715752464E+00
pair_coeff 18   24   4.832879194471943474E-01 2.450485069368524726E+00
pair_coeff 19    24   4.949362401301840020E-01 2.383406620605556636E+00
pair_coeff 20     24   2.401890134458197767E-01 1.898363561004745348E+00
pair_coeff 21      24   0.000000000000000000E+00 0.000000000000000000E+00
pair_coeff 22    24   0.000000000000000000E+00 0.000000000000000000E+00
pair_coeff 23      24   9.637380899683938296E-01 2.241072162744267793E+00
pair_coeff 24   24   2.038998270244088307E+00 1.518400541713947227E+00
pair_coeff 1      25   1.222674138853568487E-01 2.793586526663335956E+00
pair_coeff 2     25   4.503330433195999044E-02 3.299577089353393333E+00
pair_coeff 3     25   1.126016118096603430E-01 2.832194971194489597E+00
pair_coeff 4     25   1.126016118096603430E-01 2.832194971194489597E+00
pair_coeff 5     25   9.850267617010251275E-02 2.931482855034457380E+00
pair_coeff 6      25   5.583840364210079787E-01 2.182297559899140094E+00
pair_coeff 7     25   5.583840364210079787E-01 2.182297559899140094E+00
pair_coeff 8     25   5.583840364210079787E-01 2.182297559899140094E+00
pair_coeff 9     25   8.083547442600935717E-02 3.011635913604119530E+00
pair_coeff 10     25   5.583840364210079787E-01 2.182297559899140094E+00
pair_coeff 11     25   5.583840364210079787E-01 2.182297559899140094E+00
pair_coeff 12      25   3.676802214070164498E-01 2.331880049283297840E+00
pair_coeff 13    25   5.838741162631456982E-02 3.175123618634094314E+00
pair_coeff 14    25   2.150410044373349261E-01 2.760639115110234521E+00
pair_coeff 15    25   4.472924585510560935E-01 2.486054939218036886E+00
pair_coeff 16    25   6.500695009260647472E-01 2.385548453460561547E+00
pair_coeff 17    25   7.847305442853571567E-01 2.373434017715752464E+00
pair_coeff 18   25   4.832879194471943474E-01 2.450485069368524726E+00
pair_coeff 19    25   4.949362401301840020E-01 2.383406620605556636E+00
pair_coeff 20     25   2.401890134458197767E-01 1.898363561004745348E+00
pair_coeff 21      25   0.000000000000000000E+00 0.000000000000000000E+00
pair_coeff 22    25   0.000000000000000000E+00 0.000000000000000000E+00
pair_coeff 23      25   9.637380899683938296E-01 2.241072162744267793E+00
pair_coeff 24   25   2.038998270244088307E+00 1.518400541713947227E+00
pair_coeff 25   25   2.038998270244088307E+00 1.518400541713947227E+00
pair_coeff 1      26     0.000000000000000000E+00 0.000000000000000000E+00
pair_coeff 2     26     0.000000000000000000E+00 0.000000000000000000E+00
pair_coeff 3     26     0.000000000000000000E+00 0.000000000000000000E+00
pair_coeff 4     26     0.000000000000000000E+00 0.000000000000000000E+00
pair_coeff 5     26     0.000000000000000000E+00 0.000000000000000000E+00
pair_coeff 6      26     0.000000000000000000E+00 0.000000000000000000E+00
pair_coeff 7     26     0.000000000000000000E+00 0.000000000000000000E+00
pair_coeff 8     26     0.000000000000000000E+00 0.000000000000000000E+00
pair_coeff 9     26     0.000000000000000000E+00 0.000000000000000000E+00
pair_coeff 10     26     0.000000000000000000E+00 0.000000000000000000E+00
pair_coeff 11     26     0.000000000000000000E+00 0.000000000000000000E+00
pair_coeff 12      26     0.000000000000000000E+00 0.000000000000000000E+00
pair_coeff 13    26     0.000000000000000000E+00 0.000000000000000000E+00
pair_coeff 14    26     0.000000000000000000E+00 0.000000000000000000E+00
pair_coeff 15    26     0.000000000000000000E+00 0.000000000000000000E+00
pair_coeff 16    26     0.000000000000000000E+00 0.000000000000000000E+00
pair_coeff 17    26     0.000000000000000000E+00 0.000000000000000000E+00
pair_coeff 18   26     0.000000000000000000E+00 0.000000000000000000E+00
pair_coeff 19    26     0.000000000000000000E+00 0.000000000000000000E+00
pair_coeff 20     26     0.000000000000000000E+00 0.000000000000000000E+00
pair_coeff 21      26     0.000000000000000000E+00 0.000000000000000000E+00
pair_coeff 22    26     0.000000000000000000E+00 0.000000000000000000E+00
pair_coeff 23      26     0.000000000000000000E+00 0.000000000000000000E+00
pair_coeff 24   26     0.000000000000000000E+00 0.000000000000000000E+00
pair_coeff 25   26     0.000000000000000000E+00 0.000000000000000000E+00
pair_coeff 26     26     0.000000000000000000E+00 0.000000000000000000E+00
pair_coeff 1      27   5.148167869545027253E-01 2.198391984374735042E+00
pair_coeff 2     27   1.896163524310913173E-01 2.596577466216851260E+00
pair_coeff 3     27   4.741181493550025716E-01 2.228774610499382636E+00
pair_coeff 4     27   4.741181493550025716E-01 2.228774610499382636E+00
pair_coeff 5     27   4.147534460805777923E-01 2.306908466707524141E+00
pair_coeff 6      27   4.114317946416216065E-01 2.296253463382908144E+00
pair_coeff 7     27   4.114317946416216065E-01 2.296253463382908144E+00
pair_coeff 8     27   4.114317946416216065E-01 2.296253463382908144E+00
pair_coeff 9     27   3.403642711782671748E-01 2.369984315549452436E+00
pair_coeff 10     27   4.114317946416216065E-01 2.296253463382908144E+00
pair_coeff 11     27   4.114317946416216065E-01 2.296253463382908144E+00
pair_coeff 12      27   2.709162932331031781E-01 2.453646898458591963E+00
pair_coeff 13    27   4.302135444964862165E-02 3.340923226938115054E+00
pair_coeff 14    27   1.584477717956855047E-01 2.904795040652100369E+00
pair_coeff 15    27   3.295766478763905716E-01 2.615872541507785698E+00
pair_coeff 16    27   4.789880153488779158E-01 2.510117776321816319E+00
pair_coeff 17    27   5.782097536577677221E-01 2.497370745143705939E+00
pair_coeff 18   27   3.560990341007065352E-01 2.578445272956105150E+00
pair_coeff 19    27   3.646818179386565606E-01 2.507864100562072096E+00
pair_coeff 20     27   1.769774750163259913E-01 1.997492909224773072E+00
pair_coeff 21      27   0.000000000000000000E+00 0.000000000000000000E+00
pair_coeff 22    27   0.000000000000000000E+00 0.000000000000000000E+00
pair_coeff 23      27   7.101071414248384395E-01 2.358097177009347067E+00
pair_coeff 24   27   1.502386642309327724E+00 1.597688860942628741E+00
pair_coeff 25   27   1.502386642309327724E+00 1.597688860942628741E+00
pair_coeff 26     27   0.000000000000000000E+00 0.000000000000000000E+00
pair_coeff 27   27   1.106997321149905122E+00 1.681117482676084629E+00
pair_coeff 1      28   1.337556733810085774E-01 2.357481108494590138E+00
pair_coeff 2     28   4.926463850082780926E-02 2.784481733402069281E+00
pair_coeff 3     28   1.231816714918823885E-01 2.390062407746226469E+00
pair_coeff 4     28   1.231816714918823885E-01 2.390062407746226469E+00
pair_coeff 5     28   1.077579983274792180E-01 2.473850508891853206E+00
pair_coeff 6      28   1.068949928152020112E-01 2.462424444192170547E+00
pair_coeff 7     28   1.068949928152020112E-01 2.462424444192170547E+00
pair_coeff 8     28   1.068949928152020112E-01 2.462424444192170547E+00
pair_coeff 9     28   8.843078438758973647E-02 2.541490912925349122E+00
pair_coeff 10     28   1.068949928152020112E-01 2.462424444192170547E+00
pair_coeff 11     28   1.068949928152020112E-01 2.462424444192170547E+00
pair_coeff 12      28   7.038735361689542336E-02 2.631207833337182223E+00
pair_coeff 13    28   1.117747202498341370E-02 3.582692917558796708E+00
pair_coeff 14    28   4.116666151782900213E-02 3.115003821456256539E+00
pair_coeff 15    28   8.562802842568927042E-02 2.805173118654866293E+00
pair_coeff 16    28   1.244469220077783211E-01 2.691765290191502125E+00
pair_coeff 17    28   1.502259384614757498E-01 2.678095805674920893E+00
pair_coeff 18   28   9.251886749504166507E-02 2.765037383453741171E+00
pair_coeff 19    28   9.474877930215237776E-02 2.689348524634663118E+00
pair_coeff 20     28   4.598090416614816073E-02 2.142043744391038285E+00
pair_coeff 21      28   0.000000000000000000E+00 0.000000000000000000E+00
pair_coeff 22    28   0.000000000000000000E+00 0.000000000000000000E+00
pair_coeff 23      28   1.844944867392919463E-01 2.528743548150760745E+00
pair_coeff 24   28   3.903383535907812840E-01 1.713307423651182493E+00
pair_coeff 25   28   3.903383535907812840E-01 1.713307423651182493E+00
pair_coeff 26     28   0.000000000000000000E+00 0.000000000000000000E+00
pair_coeff 27   28   2.876113908353647441E-01 1.802773452022052636E+00
pair_coeff 28   28   7.472494337414144205E-02 1.933233193281657103E+00
pair_coeff 1      29   1.703146428752259911E-01 2.843803441534021204E+00
pair_coeff 2     29   6.272996950749848422E-02 3.358889582531555007E+00
pair_coeff 3     29   1.568504861035088516E-01 2.883105903219756350E+00
pair_coeff 4     29   1.568504861035088516E-01 2.883105903219756350E+00
pair_coeff 5     29   1.372111144012202466E-01 2.984178564858046556E+00
pair_coeff 6      29   1.361122266164445094E-01 2.970395429120896935E+00
pair_coeff 7     29   1.361122266164445094E-01 2.970395429120896935E+00
pair_coeff 8     29   1.361122266164445094E-01 2.970395429120896935E+00
pair_coeff 9     29   1.126012608021971506E-01 3.065772437692955599E+00
pair_coeff 10     29   1.361122266164445094E-01 2.970395429120896935E+00
pair_coeff 11     29   1.361122266164445094E-01 2.970395429120896935E+00
pair_coeff 12      29   8.962608232733035307E-02 3.173996968575379718E+00
pair_coeff 13    29   1.423257128510838597E-02 4.321762924080988277E+00
pair_coeff 14    29   5.241860085293292143E-02 3.757594729361648955E+00
pair_coeff 15    29   1.090324373747397629E-01 3.383849372190097071E+00
pair_coeff 16    29   1.584615631091823018E-01 3.247046760402909182E+00
pair_coeff 17    29   1.912866677944946026E-01 3.230557412101377146E+00
pair_coeff 18   29   1.178067253398141917E-01 3.335434077797200025E+00
pair_coeff 19    29   1.206461311270324160E-01 3.244131442785662678E+00
pair_coeff 20     29   5.854870357409030363E-02 2.583923727009426852E+00
pair_coeff 21      29   0.000000000000000000E+00 0.000000000000000000E+00
pair_coeff 22    29   0.000000000000000000E+00 0.000000000000000000E+00
pair_coeff 23      29   2.349217182881164212E-01 3.050395432258705242E+00
pair_coeff 24   29   4.970281679412999476E-01 2.066743835286263042E+00
pair_coeff 25   29   4.970281679412999476E-01 2.066743835286263042E+00
pair_coeff 26     29   0.000000000000000000E+00 0.000000000000000000E+00
pair_coeff 27   29   3.662232044351344529E-01 2.174665717868782711E+00
pair_coeff 28   29   9.514925029300028148E-02 2.332037863859216742E+00
pair_coeff 29   29   1.211560614504652439E-01 2.813111536348800179E+00
pair_coeff 1      30     2.698242160009388657E-01 3.067797545829641592E+00
pair_coeff 2     30     3.133482940435941000E-01 2.992280441419951309E+00
pair_coeff 3     30     2.452947418190353224E-01 3.116918714488987607E+00
pair_coeff 4     30     2.452947418190353224E-01 3.116918714488987607E+00
pair_coeff 5     30     1.923710802470132430E-01 3.285476264338809127E+00
pair_coeff 6      30     1.908304307803131428E-01 3.270301513790756509E+00
pair_coeff 7     30     1.908304307803131428E-01 3.270301513790756509E+00
pair_coeff 8     30     1.908304307803131428E-01 3.270301513790756509E+00
pair_coeff 9     30     1.908304307803131428E-01 3.270301513790756509E+00
pair_coeff 10     30     1.908304307803131428E-01 3.270301513790756509E+00
pair_coeff 11     30     1.908304307803131428E-01 3.270301513790756509E+00
pair_coeff 12      30     1.256564845410435005E-01 3.494459690227617266E+00
pair_coeff 13    30     1.995417881967565324E-02 4.758109878000214898E+00
pair_coeff 14    30     7.349129780864194217E-02 4.136980420576664486E+00
pair_coeff 15    30     1.528643495920544437E-01 3.725499849556486165E+00
pair_coeff 16    30     2.221643793651205678E-01 3.574884956996347896E+00
pair_coeff 17    30     2.681854387748578428E-01 3.556730761031980492E+00
pair_coeff 18   30     1.651659715241092508E-01 3.672196303169541487E+00
pair_coeff 19    30     1.691468411565035523E-01 3.571675294227750541E+00
pair_coeff 20     30     8.208575087201354370E-02 2.844809681941795620E+00
pair_coeff 21      30     0.000000000000000000E+00 0.000000000000000000E+00
pair_coeff 22    30     0.000000000000000000E+00 0.000000000000000000E+00
pair_coeff 23      30     3.293621287006147091E-01 3.358378720212484847E+00
pair_coeff 24   30     6.968374682861073754E-01 2.275412703269175108E+00
pair_coeff 25   30     6.968374682861073754E-01 2.275412703269175108E+00
pair_coeff 26     30     0.000000000000000000E+00 0.000000000000000000E+00
pair_coeff 27   30     5.134478628509925313E-01 2.394230922729341682E+00
pair_coeff 28   30     1.334000102210023686E-01 2.567492153276457856E+00
pair_coeff 29   30     1.698617675500217472E-01 3.097137446951440776E+00
pair_coeff 30     30     2.381475572067369983E-01 3.409840044152281813E+00
pair_coeff 1      31      1.825200170718821457E-01 2.848641691863192271E+00
pair_coeff 2     31      2.119614644894694810E-01 2.778519342243783719E+00
pair_coeff 3     31      1.057395499456308119E-01 3.119966996841143647E+00
pair_coeff 4     31      1.659272882471655997E-01 2.894253765967063963E+00
pair_coeff 5     31      9.249981842420902656E-02 3.229343266454477224E+00
pair_coeff 6      31      7.192433081344887236E-02 3.347591749745056244E+00
pair_coeff 7     31      6.211065545356941192E-02 3.430447483334676306E+00
pair_coeff 8     31      4.555051328896060625E-02 3.612403446600987778E+00
pair_coeff 9     31      7.590927472598106573E-02 3.317640470558243848E+00
pair_coeff 10     31      6.506004412035899798E-02 3.404024952464428821E+00
pair_coeff 11     31      7.043799131579189798E-02 3.359262692221449242E+00
pair_coeff 12      31      8.499913033581890653E-02 3.244824150032262100E+00
pair_coeff 13    31      1.349781392048931411E-02 4.418202300006069727E+00
pair_coeff 14    31      4.971248737222838665E-02 3.841444791719262675E+00
pair_coeff 15    31      1.034036311148842646E-01 3.459359372949309286E+00
pair_coeff 16    31      1.502809752047785663E-01 3.319504035055336644E+00
pair_coeff 17    31      1.814114818495274339E-01 3.302646729860391872E+00
pair_coeff 18   31      1.117249459261637351E-01 3.409863699817805127E+00
pair_coeff 19    31      1.144177672156473091E-01 3.316523662640645131E+00
pair_coeff 20     31      5.552612316481649046E-02 2.641583528356301613E+00
pair_coeff 21      31      0.000000000000000000E+00 0.000000000000000000E+00
pair_coeff 22    31      0.000000000000000000E+00 0.000000000000000000E+00
pair_coeff 23      31      2.227938701879095817E-01 3.118464467275081642E+00
pair_coeff 24   31      1.066111026131294215E-01 2.706851401515291577E+00
pair_coeff 25   31      5.863480344158913254E-02 2.990466271099721407E+00
pair_coeff 26     31      0.000000000000000000E+00 0.000000000000000000E+00
pair_coeff 27   31      2.468865591596759723E-01 2.353325024008075417E+00
pair_coeff 28   31      6.414413594489304371E-02 2.523626052896363436E+00
pair_coeff 29   31      8.167642784672754508E-02 3.044222254215389167E+00
pair_coeff 30     31      1.610926433928725754E-01 3.166249521765611696E+00
pair_coeff 31      31      1.089695819670959825E-01 2.940060502624928240E+00
pair_coeff 1      32     3.028875918701723902E-01 3.094659625059138719E+00
pair_coeff 2     32     3.517449679133345941E-01 3.018481281955716966E+00
pair_coeff 3     32     2.468521531134249269E-01 3.201992541656678348E+00
pair_coeff 4     32     2.753523562456112184E-01 3.144210905779225573E+00
pair_coeff 5     32     2.159436024870309834E-01 3.314244369926244271E+00
pair_coeff 6      32     1.679095090878598429E-01 3.435601666955987898E+00
pair_coeff 7     32     1.449991894034274031E-01 3.520635720603371155E+00
pair_coeff 8     32     1.063390404686152813E-01 3.707375400182857383E+00
pair_coeff 9     32     1.772124802594848836E-01 3.404862953159864425E+00
pair_coeff 10     32     1.518846257717465786E-01 3.493518527740791413E+00
pair_coeff 11     32     1.644396049182014208E-01 3.447579444541888805E+00
pair_coeff 12      32     1.410540186851716171E-01 3.525057684932574986E+00
pair_coeff 13    32     2.239929855079176788E-02 4.799772576602748586E+00
pair_coeff 14    32     8.249668078937649751E-02 4.173204419770964790E+00
pair_coeff 15    32     1.715958464253498628E-01 3.758120865328633986E+00
pair_coeff 16    32     2.493876749186909880E-01 3.606187166974876845E+00
pair_coeff 17    32     3.010480042491057717E-01 3.587874010243685685E+00
pair_coeff 18   32     1.854048688263800759E-01 3.704350585376364968E+00
pair_coeff 19    32     1.898735411878733903E-01 3.602949399934630925E+00
pair_coeff 20     32     9.214426998795607893E-02 2.869719247168172060E+00
pair_coeff 21      32     0.000000000000000000E+00 0.000000000000000000E+00
pair_coeff 22    32     0.000000000000000000E+00 0.000000000000000000E+00
pair_coeff 23      32     3.697210854307304562E-01 3.387785170252723521E+00
pair_coeff 24   32     2.488868189752940496E-01 2.778015923822349631E+00
pair_coeff 25   32     1.368847085539993957E-01 3.069087174906648396E+00
pair_coeff 26     32     0.000000000000000000E+00 0.000000000000000000E+00
pair_coeff 27   32     5.763640826414281326E-01 2.415195155140145822E+00
pair_coeff 28   32     1.497464106452001675E-01 2.589973486093279487E+00
pair_coeff 29   32     1.906760723205734864E-01 3.124256430600719447E+00
pair_coeff 30     32     2.673293790349109966E-01 3.439697096991523484E+00
pair_coeff 31      32     1.808324084043584357E-01 3.193973660742658982E+00
pair_coeff 32     32     3.000870457518571288E-01 3.469815582505817453E+00
pair_coeff 1      33     4.619134934213758870E-01 3.174341374980300667E+00
pair_coeff 2     33     5.364225913614864005E-01 3.096201580725539859E+00
pair_coeff 3     33     3.764576148503470665E-01 3.284437915256962270E+00
pair_coeff 4     33     4.199213576557962457E-01 3.225168509344078061E+00
pair_coeff 5     33     3.293210632726623621E-01 3.399580020064839836E+00
pair_coeff 6      33     2.560674983169540231E-01 3.524062042578035125E+00
pair_coeff 7     33     2.211285107688185092E-01 3.611285565510714335E+00
pair_coeff 8     33     1.621705180019040737E-01 3.802833445749207453E+00
pair_coeff 9     33     2.702548339108319375E-01 3.492531863870627973E+00
pair_coeff 10     33     2.316290266433154443E-01 3.583470155189018680E+00
pair_coeff 11     33     2.507757808618153450E-01 3.536348225738003670E+00
pair_coeff 12      33     2.151119962679723108E-01 3.615821387226038297E+00
pair_coeff 13    33     3.415966358971698341E-02 4.923357824889950329E+00
pair_coeff 14    33     1.258101389489161837E-01 4.280656699257024300E+00
pair_coeff 15    33     2.616892834385430300E-01 3.854885512574417916E+00
pair_coeff 16    33     3.803243686103310317E-01 3.699039803071263677E+00
pair_coeff 17    33     4.591080620755257913E-01 3.680255116494558720E+00
pair_coeff 18   33     2.827484946746637862E-01 3.799730747567426459E+00
pair_coeff 19    33     2.895633663196458540E-01 3.695718669530379863E+00
pair_coeff 20     33     1.405230283158743487E-01 2.943609199247290142E+00
pair_coeff 21      33     0.000000000000000000E+00 0.000000000000000000E+00
pair_coeff 22    33     0.000000000000000000E+00 0.000000000000000000E+00
pair_coeff 23      33     5.638367590708479593E-01 3.475014359704387434E+00
pair_coeff 24   33     3.795605468998184961E-01 2.849544685281790724E+00
pair_coeff 25   33     2.087536618246373654E-01 3.148110481630561619E+00
pair_coeff 26     33     0.000000000000000000E+00 0.000000000000000000E+00
pair_coeff 27   33     8.789740948174059598E-01 2.477381954232469763E+00
pair_coeff 28   33     2.283681785752544047E-01 2.656660503285802832E+00
pair_coeff 29   33     2.907872525699738975E-01 3.204700243411942928E+00
pair_coeff 30     33     4.076860547562866088E-01 3.528262922346804054E+00
pair_coeff 31      33     2.757753428396018114E-01 3.276212563021035251E+00
pair_coeff 32     33     4.576425689077261438E-01 3.559156903043612541E+00
pair_coeff 33     33     6.979198997135206417E-01 3.650798597006346569E+00
pair_coeff 1      34   2.726298193589453134E-01 3.152721713066568121E+00
pair_coeff 2     34   3.166064561130476629E-01 3.075114109819085950E+00
pair_coeff 3     34   2.478452903263138885E-01 3.203202676262477233E+00
pair_coeff 4     34   2.478452903263138885E-01 3.203202676262477233E+00
pair_coeff 5     34   1.943713341779741421E-01 3.376426312885838499E+00
pair_coeff 6      34   1.928146652027906693E-01 3.360831487989961452E+00
pair_coeff 7     34   1.928146652027906693E-01 3.360831487989961452E+00
pair_coeff 8     34   1.928146652027906693E-01 3.360831487989961452E+00
pair_coeff 9     34   1.928146652027906693E-01 3.360831487989961452E+00
pair_coeff 10     34   1.928146652027906693E-01 3.360831487989961452E+00
pair_coeff 11     34   1.928146652027906693E-01 3.360831487989961452E+00
pair_coeff 12      34   1.269630472365963769E-01 3.591194913038851411E+00
pair_coeff 13    34   2.016166023825427880E-02 4.889826040157090326E+00
pair_coeff 14    34   7.425545246819055534E-02 4.251502194534839241E+00
pair_coeff 15    34   1.544538167603142498E-01 3.828630831160853454E+00
pair_coeff 16    34   2.244744208358758208E-01 3.673846548628572073E+00
pair_coeff 17    34   2.709740023024271305E-01 3.655189799952984320E+00
pair_coeff 18   34   1.668833496423683671E-01 3.773851711754483418E+00
pair_coeff 19    34   1.709056119317078348E-01 3.670548034515104696E+00
pair_coeff 20     34   8.293926973590307061E-02 2.923560997691061925E+00
pair_coeff 21      34   0.000000000000000000E+00 0.000000000000000000E+00
pair_coeff 22    34   0.000000000000000000E+00 0.000000000000000000E+00
pair_coeff 23      34   3.327868009112045500E-01 3.451346887707100741E+00
pair_coeff 24   34   7.040831098003642596E-01 2.338401712830169732E+00
pair_coeff 25   34   7.040831098003642596E-01 2.338401712830169732E+00
pair_coeff 26     34   0.000000000000000000E+00 0.000000000000000000E+00
pair_coeff 27   34   5.187866388494037917E-01 2.460509112293086442E+00
pair_coeff 28   34   1.347870892689141398E-01 2.638566639042558393E+00
pair_coeff 29   34   1.716279720534513720E-01 3.182873814678249147E+00
pair_coeff 30     34   2.406237900523386375E-01 3.504232787426495133E+00
pair_coeff 31      34   1.627676674805978718E-01 3.253899081387234382E+00
pair_coeff 32     34   2.701090413448035132E-01 3.534916356784718605E+00
pair_coeff 33     34   4.119251307784054794E-01 3.625933901607006682E+00
pair_coeff 34   34   2.431257705023985027E-01 3.601238553560273559E+00
pair_coeff 1      35   1.774056427875315700E-01 3.022113465134438570E+00
pair_coeff 2     35   1.088910246333028992E-01 3.278234300527326894E+00
pair_coeff 3     35   1.633809098206280841E-01 3.063880240200058669E+00
pair_coeff 4     35   1.633809098206280841E-01 3.063880240200058669E+00
pair_coeff 5     35   1.429238586712428538E-01 3.171290283817308264E+00
pair_coeff 6      35   1.111321413093139809E-01 3.287413047857584036E+00
pair_coeff 7     35   9.596877802844315519E-02 3.368779307561466041E+00
pair_coeff 8     35   7.038127462972523785E-02 3.547464300384358893E+00
pair_coeff 9     35   1.172893810776735740E-01 3.258000194272241412E+00
pair_coeff 10     35   1.005259546387323316E-01 3.342831766990879583E+00
pair_coeff 11     35   1.088355597600791647E-01 3.298874185130554082E+00
pair_coeff 12      35   9.335763782481623640E-02 3.373010538257620983E+00
pair_coeff 13    35   1.482514019187304057E-02 4.592742851080654276E+00
pair_coeff 14    35   5.460103383565441393E-02 3.993200606718578349E+00
pair_coeff 15    35   1.135719707396375816E-01 3.596020949382504384E+00
pair_coeff 16    35   1.650590635421556873E-01 3.450640643166755339E+00
pair_coeff 17    35   1.992508317774452642E-01 3.433117392155260461E+00
pair_coeff 18   35   1.227115735956721548E-01 3.544569955630175073E+00
pair_coeff 19    35   1.256691972052001172E-01 3.447542531497872709E+00
pair_coeff 20     35   6.098636157519143897E-02 2.745938968293540228E+00
pair_coeff 21      35   0.000000000000000000E+00 0.000000000000000000E+00
pair_coeff 22    35   0.000000000000000000E+00 0.000000000000000000E+00
pair_coeff 23      35   2.447026147257768958E-01 3.241659031413521852E+00
pair_coeff 24   35   1.647275683589491391E-01 2.658191106078167110E+00
pair_coeff 25   35   9.059814930521523091E-02 2.936707512061449421E+00
pair_coeff 26     35   0.000000000000000000E+00 0.000000000000000000E+00
pair_coeff 27   35   3.814707995138282293E-01 2.311019971405739337E+00
pair_coeff 28   35   9.911076125937028081E-02 2.478259547281012942E+00
pair_coeff 29   35   1.262003583272166274E-01 2.989497139204101650E+00
pair_coeff 30     35   1.769339121317631824E-01 3.291331828740973631E+00
pair_coeff 31      35   8.507700182510755105E-02 3.235098787405478848E+00
pair_coeff 32     35   1.986148143410966516E-01 3.320151206497628849E+00
pair_coeff 33     35   3.028940940468037857E-01 3.405638946730622507E+00
pair_coeff 34   35   1.787736520386526418E-01 3.382443973685540506E+00
pair_coeff 35   35   1.314546730163348442E-01 3.176942339410103067E+00
pair_coeff 1      36    3.493138043396110115E-02 2.995467182793318806E+00
pair_coeff 2     36    1.286586045970535865E-02 3.538023538529870837E+00
pair_coeff 3     36    3.216989396118666994E-02 3.036865695947625898E+00
pair_coeff 4     36    3.216989396118666994E-02 3.036865695947625898E+00
pair_coeff 5     36    2.814187644704253116E-02 3.143328694266439349E+00
pair_coeff 6      36    2.791649554839393046E-02 3.128810485949500286E+00
pair_coeff 7     36    2.791649554839393046E-02 3.128810485949500286E+00
pair_coeff 8     36    2.791649554839393046E-02 3.128810485949500286E+00
pair_coeff 9     36    2.309441755578705083E-02 3.229274074606136136E+00
pair_coeff 10     36    2.791649554839393046E-02 3.128810485949500286E+00
pair_coeff 11     36    2.791649554839393046E-02 3.128810485949500286E+00
pair_coeff 12      36    1.838222906573640236E-02 3.343270360670348218E+00
pair_coeff 13    36    2.919087599988792053E-03 4.552248169414355949E+00
pair_coeff 14    36    1.075100800082823098E-02 3.957992150107363383E+00
pair_coeff 15    36    2.236245507304574984E-02 3.564314466278117433E+00
pair_coeff 16    36    3.250032440946476475E-02 3.420215993034873669E+00
pair_coeff 17    36    3.923272392714612089E-02 3.402847246312967755E+00
pair_coeff 18   36    2.416205366169842800E-02 3.513317121179974301E+00
pair_coeff 19    36    2.474441324091778208E-02 3.417145197732238238E+00
pair_coeff 20     36    1.200828656852534135E-02 2.721727744630110912E+00
pair_coeff 21      36    0.000000000000000000E+00 0.000000000000000000E+00
pair_coeff 22    36    0.000000000000000000E+00 0.000000000000000000E+00
pair_coeff 23      36    4.818223363057468761E-02 3.213076993445320717E+00
pair_coeff 24   36    1.019400312718368312E-01 2.176965975714864943E+00
pair_coeff 25   36    1.019400312718368312E-01 2.176965975714864943E+00
pair_coeff 26     36    0.000000000000000000E+00 0.000000000000000000E+00
pair_coeff 27   36    7.511205062526553344E-02 2.290643472851174423E+00
pair_coeff 28   36    1.951502585967282086E-02 2.456408480346143008E+00
pair_coeff 29   36    2.484899949270408595E-02 2.963138438331942570E+00
pair_coeff 30     36    3.483849611111720229E-02 3.262311820657642247E+00
pair_coeff 31      36    1.675176206482257082E-02 3.206574591777111127E+00
pair_coeff 32     36    3.910749134331937410E-02 3.290877095024250742E+00
pair_coeff 33     36    5.964020458481446990E-02 3.375611081141380421E+00
pair_coeff 34   36    3.520074306999246977E-02 3.352620620536940876E+00
pair_coeff 35   36    2.588358025598428910E-02 3.148930915109191542E+00
pair_coeff 36    36    5.096507499468877836E-03 3.121166470390387637E+00
pair_coeff 1      37    2.226461306623754022E-01 3.362204455973978323E+00
pair_coeff 2     37    2.585601331580250628E-01 3.279440211868734245E+00
pair_coeff 3     37    1.814556892113898812E-01 3.478816702288478169E+00
pair_coeff 4     37    2.024055733294321535E-01 3.416039629150127599E+00
pair_coeff 5     37    1.587354808368636461E-01 3.600773118478173718E+00
pair_coeff 6      37    1.234266556414602978E-01 3.732622205057627429E+00
pair_coeff 7     37    1.065857741828254851E-01 3.825007768809989717E+00
pair_coeff 8     37    7.816753321752194228E-02 4.027891788010422580E+00
pair_coeff 9     37    1.302650689360985159E-01 3.699226015163477044E+00
pair_coeff 10     37    1.116471098283786517E-01 3.795546193799352430E+00
pair_coeff 11     37    1.208760039875793058E-01 3.745635506050692953E+00
pair_coeff 12      37    1.036857643481583074E-01 3.829812028396864854E+00
pair_coeff 13    37    1.646524085418059336E-02 5.214730762000061581E+00
pair_coeff 14    37    6.064152927768903800E-02 4.533993458352017392E+00
pair_coeff 15    37    1.261364026450952358E-01 4.083024387295987268E+00
pair_coeff 16    37    1.833194965587523484E-01 3.917955455811204413E+00
pair_coeff 17    37    2.212938895114058557E-01 3.898059058590013226E+00
pair_coeff 18   37    1.362871169309986807E-01 4.024605466717271263E+00
pair_coeff 19    37    1.395719415233208360E-01 3.914437771771909880E+00
pair_coeff 20     37    6.773326384502838249E-02 3.117817146058102118E+00
pair_coeff 21      37    0.000000000000000000E+00 0.000000000000000000E+00
pair_coeff 22    37    0.000000000000000000E+00 0.000000000000000000E+00
pair_coeff 23      37    2.717739891131936147E-01 3.680671794426697563E+00
pair_coeff 24   37    1.829513281662208113E-01 3.018185729444698318E+00
pair_coeff 25   37    1.006209944693221142E-01 3.334421172424263169E+00
pair_coeff 26     37    0.000000000000000000E+00 0.000000000000000000E+00
pair_coeff 27   37    4.236727957739777617E-01 2.623997756297280493E+00
pair_coeff 28   37    1.100753540442943462E-01 2.813886323808834078E+00
pair_coeff 29   37    1.401618648355585917E-01 3.394360015399224828E+00
pair_coeff 30     37    1.965080559655630332E-01 3.737071700247052153E+00
pair_coeff 31      37    1.329259999757477217E-01 3.470104559304247438E+00
pair_coeff 32     37    2.205875096632962662E-01 3.769794040818323477E+00
pair_coeff 33     37    3.364031737469428962E-01 3.866859250698725603E+00
pair_coeff 34   37    1.985513257278677390E-01 3.840523019086392154E+00
pair_coeff 35   37    1.459974627294264860E-01 3.607190623033505794E+00
pair_coeff 36    37    2.874707271347901050E-02 3.575385655778474892E+00
pair_coeff 37    37    1.621491167589119986E-01 4.095706752209074430E+00
pair_coeff 1      38   1.763627633860331279E-01 3.063392634298282680E+00
pair_coeff 2     38   2.048110131065301875E-01 2.987983961478049899E+00
pair_coeff 3     38   1.603297848963937400E-01 3.112443272096635738E+00
pair_coeff 4     38   1.603297848963937400E-01 3.112443272096635738E+00
pair_coeff 5     38   1.257377703556508686E-01 3.280758797795926274E+00
pair_coeff 6      38   1.247307695705341529E-01 3.265605835984801697E+00
pair_coeff 7     38   1.247307695705341529E-01 3.265605835984801697E+00
pair_coeff 8     38   1.247307695705341529E-01 3.265605835984801697E+00
pair_coeff 9     38   1.247307695705341529E-01 3.265605835984801697E+00
pair_coeff 10     38   1.247307695705341529E-01 3.265605835984801697E+00
pair_coeff 11     38   1.247307695705341529E-01 3.265605835984801697E+00
pair_coeff 12      38   8.213171219204309925E-02 3.489442153850004225E+00
pair_coeff 13    38   1.304246953774084068E-02 4.751277923558641980E+00
pair_coeff 14    38   4.803545270493036340E-02 4.131040317787165073E+00
pair_coeff 15    38   9.991534309570471173E-02 3.720150573079720857E+00
pair_coeff 16    38   1.452112951590650569E-01 3.569751941621275737E+00
pair_coeff 17    38   1.752916242405209712E-01 3.551623812444546502E+00
pair_coeff 18   38   1.079559410458155871E-01 3.666923562840495698E+00
pair_coeff 19    38   1.105579208808877417E-01 3.566546887462056503E+00
pair_coeff 20     38   5.365296737619508483E-02 2.840724948583317921E+00
pair_coeff 21      38   0.000000000000000000E+00 0.000000000000000000E+00
pair_coeff 22    38   0.000000000000000000E+00 0.000000000000000000E+00
pair_coeff 23      38   2.152779911056781903E-01 3.353556576335538608E+00
pair_coeff 24   38   4.554675757398939928E-01 2.272145541239902311E+00
pair_coeff 25   38   4.554675757398939928E-01 2.272145541239902311E+00
pair_coeff 26     38   0.000000000000000000E+00 0.000000000000000000E+00
pair_coeff 27   38   3.356002855827399101E-01 2.390793155000958237E+00
pair_coeff 28   38   8.719304288914962731E-02 2.563805607595497360E+00
pair_coeff 29   38   1.110252117573227587E-01 3.092690407585096501E+00
pair_coeff 30     38   1.556582352210648112E-01 3.404944009291379192E+00
pair_coeff 31      38   1.052935283978697484E-01 3.161703247501671754E+00
pair_coeff 32     38   1.747320856505523434E-01 3.434758191740909350E+00
pair_coeff 33     38   2.664721509299896041E-01 3.523196849439405476E+00
pair_coeff 34   38   1.572767529134725395E-01 3.499201218301315031E+00
pair_coeff 35   38   1.156477136957594076E-01 3.286605954458409862E+00
pair_coeff 36    38   2.277117131083897586E-02 3.257627614890140855E+00
pair_coeff 37    38   1.284417844007869070E-01 3.731705808274059954E+00
pair_coeff 38   38   1.017414853056947954E-01 3.400055004425153182E+00
pair_coeff 1      39  3.025968882784489944E-01 3.081336470273898787E+00
pair_coeff 2     39  3.514073722894541785E-01 3.005486090817345968E+00
pair_coeff 3     39  2.750880802531354141E-01 3.130674422401240609E+00
pair_coeff 4     39  2.750880802531354141E-01 3.130674422401240609E+00
pair_coeff 5     39  2.157363454631790467E-01 3.299975857040665872E+00
pair_coeff 6      39  2.140085697228813477E-01 3.284734136688360451E+00
pair_coeff 7     39  2.140085697228813477E-01 3.284734136688360451E+00
pair_coeff 8     39  2.140085697228813477E-01 3.284734136688360451E+00
pair_coeff 9     39  2.140085697228813477E-01 3.284734136688360451E+00
pair_coeff 10     39  2.140085697228813477E-01 3.284734136688360451E+00
pair_coeff 11     39  2.140085697228813477E-01 3.284734136688360451E+00
pair_coeff 12      39  1.409186387258750672E-01 3.509881576780662371E+00
pair_coeff 13    39  2.237780028966923282E-02 4.779108555120642698E+00
pair_coeff 14    39  8.241750263201898241E-02 4.155237904815708205E+00
pair_coeff 15    39  1.714311532183001030E-01 3.741941371601773980E+00
pair_coeff 16    39  2.491483191485096838E-01 3.590661779490871286E+00
pair_coeff 17    39  3.007590662454852626E-01 3.572427464716889212E+00
pair_coeff 18   39  1.852269220806647965E-01 3.688402583913419353E+00
pair_coeff 19    39  1.896913055272583803E-01 3.587437951712664219E+00
pair_coeff 20     39  9.205583232672064076E-02 2.857364507599851500E+00
pair_coeff 21      39  0.000000000000000000E+00 0.000000000000000000E+00
pair_coeff 22    39  0.000000000000000000E+00 0.000000000000000000E+00
pair_coeff 23      39  3.693662367992399664E-01 3.373200048891741964E+00
pair_coeff 24   39  7.814748900761182560E-01 2.285454643849949008E+00
pair_coeff 25   39  7.814748900761182560E-01 2.285454643849949008E+00
pair_coeff 26     39  0.000000000000000000E+00 0.000000000000000000E+00
pair_coeff 27   39  5.758109034638668744E-01 2.404797236536131866E+00
pair_coeff 28   39  1.496026879553617739E-01 2.578823110340977554E+00
pair_coeff 29   39  1.904930664115593308E-01 3.110805855398001363E+00
pair_coeff 30     39  2.670728032862023649E-01 3.424888483964596109E+00
pair_coeff 31      39  1.806588501866098206E-01 3.180222938331227489E+00
pair_coeff 32     39  2.997990300510781636E-01 3.454877303120381882E+00
pair_coeff 33     39  4.572033355350892392E-01 3.543833990649556398E+00
pair_coeff 34   39  2.698497977488837352E-01 3.519697804995386647E+00
pair_coeff 35   39  1.984241890350484927E-01 3.305857263449297090E+00
pair_coeff 36    39  3.906995699558794138E-02 3.276709183128165837E+00
pair_coeff 37    39  2.203757955387509737E-01 3.753564291637640160E+00
pair_coeff 38   39  1.745857558702323398E-01 3.420002180612172538E+00
pair_coeff 39  39  2.995112907802387481E-01 3.440003336141669088E+00
pair_coeff 1      40   7.770287548036601544E-02 2.465397265096893165E+00
pair_coeff 2     40   9.023676167734992482E-02 2.404708885274443819E+00
pair_coeff 3     40   7.063897770942365040E-02 2.504872880114495270E+00
pair_coeff 4     40   7.063897770942365040E-02 2.504872880114495270E+00
pair_coeff 5     40   5.539823784535763407E-02 2.640332054392829697E+00
pair_coeff 6      40   5.495456790555701410E-02 2.628137055231117181E+00
pair_coeff 7     40   5.495456790555701410E-02 2.628137055231117181E+00
pair_coeff 8     40   5.495456790555701410E-02 2.628137055231117181E+00
pair_coeff 9     40   5.495456790555701410E-02 2.628137055231117181E+00
pair_coeff 10     40   5.495456790555701410E-02 2.628137055231117181E+00
pair_coeff 11     40   5.495456790555701410E-02 2.628137055231117181E+00
pair_coeff 12      40   3.618604110595938922E-02 2.808278980140014092E+00
pair_coeff 13    40   5.746322902807278477E-03 3.823795705227954755E+00
pair_coeff 14    40   2.116372372780480487E-02 3.324632757632268287E+00
pair_coeff 15    40   4.402125093804482719E-02 2.993951524832954014E+00
pair_coeff 16    40   6.397799041847561374E-02 2.872911743474042101E+00
pair_coeff 17    40   7.723094710927499995E-02 2.858322350135023004E+00
pair_coeff 18   40   4.756382176938069029E-02 2.951114794077698278E+00
pair_coeff 19    40   4.871021634409310186E-02 2.870332337990671334E+00
pair_coeff 20     40   2.363871921228234349E-02 2.286195847282922244E+00
pair_coeff 21      40   0.000000000000000000E+00 0.000000000000000000E+00
pair_coeff 22    40   0.000000000000000000E+00 0.000000000000000000E+00
pair_coeff 23      40   9.484836036467202136E-02 2.698919204504523606E+00
pair_coeff 24   40   2.006724075058574086E-01 1.828607061516331456E+00
pair_coeff 25   40   2.006724075058574086E-01 1.828607061516331456E+00
pair_coeff 26     40   0.000000000000000000E+00 0.000000000000000000E+00
pair_coeff 27   40   1.478606180871174514E-01 1.924093842806378074E+00
pair_coeff 28   40   3.841598999863683750E-02 2.063333071457193135E+00
pair_coeff 29   40   4.891609792639325244E-02 2.488975910983167061E+00
pair_coeff 30     40   6.858076068133200920E-02 2.740275456148935529E+00
pair_coeff 31      40   4.639080137386862590E-02 2.544516968594239259E+00
pair_coeff 32     40   7.698442252240610129E-02 2.764269704567898334E+00
pair_coeff 33     40   1.174037646335611834E-01 2.835444526357811412E+00
pair_coeff 34   40   6.929385610069017931E-02 2.816133007906088892E+00
pair_coeff 35   40   5.095270523302689036E-02 2.645037805749309356E+00
pair_coeff 36    40   1.003264779331716934E-02 2.621716237916714931E+00
pair_coeff 37    40   5.658958721306098921E-02 3.003251098425550492E+00
pair_coeff 38   40   4.492103907914993949E-02 2.799891255752950503E+00
pair_coeff 39  40   7.712993371945030263E-02 2.820082387646319688E+00
pair_coeff 40   40   1.974960730563848910E-02 2.202188219488486975E+00
pair_coeff 1      41  3.078683944880841739E-01 3.134598379462572915E+00
pair_coeff 2     41  3.575292004274581159E-01 3.057436901376735072E+00
pair_coeff 3     41  2.798803586255310671E-01 3.184789154237201991E+00
pair_coeff 4     41  2.798803586255310671E-01 3.184789154237201991E+00
pair_coeff 5     41  2.194946639681157330E-01 3.357017019574562333E+00
pair_coeff 6      41  2.177367888418141884E-01 3.341511841098447899E+00
pair_coeff 7     41  2.177367888418141884E-01 3.341511841098447899E+00
pair_coeff 8     41  2.177367888418141884E-01 3.341511841098447899E+00
pair_coeff 9     41  2.177367888418141884E-01 3.341511841098447899E+00
pair_coeff 10     41  2.177367888418141884E-01 3.341511841098447899E+00
pair_coeff 11     41  2.177367888418141884E-01 3.341511841098447899E+00
pair_coeff 12      41  1.433735664130799115E-01 3.570551028367321855E+00
pair_coeff 13    41  2.276764142074000352E-02 4.861717010354688284E+00
pair_coeff 14    41  8.385328863556677781E-02 4.227062551711202154E+00
pair_coeff 15    41  1.744176359738121573E-01 3.806622052678410917E+00
pair_coeff 16    41  2.534887038728330655E-01 3.652727543314932213E+00
pair_coeff 17    41  3.059985559650827969E-01 3.634178042443301226E+00
pair_coeff 18   41  1.884537393671708305E-01 3.752157829525465615E+00
pair_coeff 19    41  1.929958963334948985E-01 3.649447990618651438E+00
pair_coeff 20     41  9.365952658314305457E-02 2.906754988123776862E+00
pair_coeff 21      41  0.000000000000000000E+00 0.000000000000000000E+00
pair_coeff 22    41  0.000000000000000000E+00 0.000000000000000000E+00
pair_coeff 23      41  3.758009242872520916E-01 3.431506915542800851E+00
pair_coeff 24   41  7.950888758614560459E-01 2.324959475233958628E+00
pair_coeff 25   41  7.950888758614560459E-01 2.324959475233958628E+00
pair_coeff 26     41  0.000000000000000000E+00 0.000000000000000000E+00
pair_coeff 27   41  5.858420401700457081E-01 2.446364943686976545E+00
pair_coeff 28   41  1.522088994832513364E-01 2.623398911666701139E+00
pair_coeff 29   41  1.938116246035951340E-01 3.164577152551757422E+00
pair_coeff 30     41  2.717254484239552959E-01 3.484088802129798879E+00
pair_coeff 31      41  1.838060876086547446E-01 3.235194132478707463E+00
pair_coeff 32     41  3.050217950885778517E-01 3.514595987837878077E+00
pair_coeff 33     41  4.651682231981815185E-01 3.605090320820125260E+00
pair_coeff 34   41  2.745508205934842905E-01 3.580536933298883895E+00
pair_coeff 35   41  2.018809144184158522E-01 3.363000088017528810E+00
pair_coeff 36    41  3.975059030310198332E-02 3.333348173589975261E+00
pair_coeff 37    41  2.242149373793861367E-01 3.818445878690444051E+00
pair_coeff 38   41  1.776054487496074863E-01 3.479086156840626831E+00
pair_coeff 39  41  3.047290431444037995E-01 3.499464919472758506E+00
pair_coeff 40   41  7.825038462692963936E-02 2.799944545168011611E+00
pair_coeff 41  41  3.100376933831125448E-01 3.559954315729227936E+00
pair_coeff 1      42  2.517150719017874350E-01 3.216286733597559344E+00
pair_coeff 2     42  2.923180488930291476E-01 3.137114409660223480E+00
pair_coeff 3     42  2.288318835470794788E-01 3.267785491497223305E+00
pair_coeff 4     42  2.288318835470794788E-01 3.267785491497223305E+00
pair_coeff 5     42  1.794601723072659361E-01 3.444501654585188533E+00
pair_coeff 6      42  1.780229229119614787E-01 3.428592407594721170E+00
pair_coeff 7     42  1.780229229119614787E-01 3.428592407594721170E+00
pair_coeff 8     42  1.780229229119614787E-01 3.428592407594721170E+00
pair_coeff 9     42  1.780229229119614787E-01 3.428592407594721170E+00
pair_coeff 10     42  1.780229229119614787E-01 3.428592407594721170E+00
pair_coeff 11     42  1.780229229119614787E-01 3.428592407594721170E+00
pair_coeff 12      42  1.172230999498745652E-01 3.663600408719620116E+00
pair_coeff 13    42  1.861496210673063006E-02 4.988414472922134912E+00
pair_coeff 14    42  6.855895881485152277E-02 4.337220773235620719E+00
pair_coeff 15    42  1.426049200441300291E-01 3.905823498176049124E+00
pair_coeff 16    42  2.072539060975635561E-01 3.747918462531858008E+00
pair_coeff 17    42  2.501862805523388245E-01 3.728885557404626905E+00
pair_coeff 18   42  1.540809235512614617E-01 3.849939924851243589E+00
pair_coeff 19    42  1.577946187139902257E-01 3.744553443938634096E+00
pair_coeff 20     42  7.657659860592054557E-02 2.982505691119483604E+00
pair_coeff 21      42  0.000000000000000000E+00 0.000000000000000000E+00
pair_coeff 22    42  0.000000000000000000E+00 0.000000000000000000E+00
pair_coeff 23      42  3.072571214561132247E-01 3.520932774360979955E+00
pair_coeff 24   42  6.500695009260647472E-01 2.385548453460561547E+00
pair_coeff 25   42  6.500695009260647472E-01 2.385548453460561547E+00
pair_coeff 26     42  0.000000000000000000E+00 0.000000000000000000E+00
pair_coeff 27   42  4.789880153488779158E-01 2.510117776321816319E+00
pair_coeff 28   42  1.244469220077783211E-01 2.691765290191502125E+00
pair_coeff 29   42  1.584615631091823018E-01 3.247046760402909182E+00
pair_coeff 30     42  2.221643793651205678E-01 3.574884956996347896E+00
pair_coeff 31      42  1.502809752047785663E-01 3.319504035055336644E+00
pair_coeff 32     42  2.493876749186909880E-01 3.606187166974876845E+00
pair_coeff 33     42  3.803243686103310317E-01 3.699039803071263677E+00
pair_coeff 34   42  2.244744208358758208E-01 3.673846548628572073E+00
pair_coeff 35   42  1.650590635421556873E-01 3.450640643166755339E+00
pair_coeff 36    42  3.250032440946476475E-02 3.420215993034873669E+00
pair_coeff 37    42  1.833194965587523484E-01 3.917955455811204413E+00
pair_coeff 38   42  1.452112951590650569E-01 3.569751941621275737E+00
pair_coeff 39  42  2.491483191485096838E-01 3.590661779490871286E+00
pair_coeff 40   42  6.397799041847561374E-02 2.872911743474042101E+00
pair_coeff 41  42  2.534887038728330655E-01 3.652727543314932213E+00
pair_coeff 42  42  2.072539060975635561E-01 3.747918462531858008E+00
pair_coeff 1      43  3.540045720962458620E-01 2.694267436109534231E+00
pair_coeff 2     43  4.111073883361350823E-01 2.627945173235017418E+00
pair_coeff 3     43  2.223108962183115156E-01 2.911490578234520399E+00
pair_coeff 4     43  3.218223382693144452E-01 2.737407690042663599E+00
pair_coeff 5     43  1.944751755089789147E-01 3.013558317663839858E+00
pair_coeff 6      43  1.512164790871689257E-01 3.123905428815852758E+00
pair_coeff 7     43  1.305838306072752142E-01 3.201224736341582222E+00
pair_coeff 8     43  9.576715086909036445E-02 3.371022389085928772E+00
pair_coeff 9     43  1.595945784173651294E-01 3.095955496253500083E+00
pair_coeff 10     43  1.367847387646038970E-01 3.176567760880071756E+00
pair_coeff 11     43  1.480915417673231704E-01 3.134796518078508232E+00
pair_coeff 12      43  1.648590726968548470E-01 3.068979881992677683E+00
pair_coeff 13    43  2.617952769134209573E-02 4.178770049266796960E+00
pair_coeff 14    43  9.641927555329404820E-02 3.633268318548095621E+00
pair_coeff 15    43  2.005553077041754007E-01 3.271888962013142610E+00
pair_coeff 16    43  2.914757141438480414E-01 3.139612697248032713E+00
pair_coeff 17    43  3.518545255241552483E-01 3.123668927072572821E+00
pair_coeff 18   43  2.166948168731066826E-01 3.225075569957748023E+00
pair_coeff 19    43  2.219176470240586396E-01 3.136793837871186597E+00
pair_coeff 20     43  1.076950451050141949E-01 2.498430216949698135E+00
pair_coeff 21      43  0.000000000000000000E+00 0.000000000000000000E+00
pair_coeff 22    43  0.000000000000000000E+00 0.000000000000000000E+00
pair_coeff 23      43  4.321172545720066149E-01 2.949467912669808012E+00
pair_coeff 24   43  2.241432820636522216E-01 2.525979396632042295E+00
pair_coeff 25   43  1.232760656668827753E-01 2.790643100279648792E+00
pair_coeff 26     43  0.000000000000000000E+00 0.000000000000000000E+00
pair_coeff 27   43  5.190637964627597967E-01 2.196075677037649054E+00
pair_coeff 28   43  1.348590981935383903E-01 2.354997178955427373E+00
pair_coeff 29   43  1.717196629251071804E-01 2.840807104746190692E+00
pair_coeff 30     43  3.124453591831943267E-01 2.994663388329067644E+00
pair_coeff 31      43  2.113506828162100282E-01 2.780732057331203322E+00
pair_coeff 32     43  3.507313903718691228E-01 3.020885094292788509E+00
pair_coeff 33     43  5.348768524286334758E-01 3.098667286775234508E+00
pair_coeff 34   43  3.156941326324790298E-01 3.077563022548567950E+00
pair_coeff 35   43  1.788691604327004581E-01 3.018929254291899511E+00
pair_coeff 36    43  3.521954878549677509E-02 2.992311047462213214E+00
pair_coeff 37    43  2.578150741863444728E-01 3.282051842720017820E+00
pair_coeff 38   43  2.042208359552802888E-01 2.990363486821641992E+00
pair_coeff 39  43  3.503947675532131378E-01 3.007879554241217335E+00
pair_coeff 40   43  8.997673818477992802E-02 2.406623910860338000E+00
pair_coeff 41  43  3.564989552184898436E-01 3.059871736599097503E+00
pair_coeff 42  43  2.914757141438480414E-01 3.139612697248032713E+00
pair_coeff 43  43  4.099227538595709985E-01 2.630037976349726581E+00
pair_coeff 1      44   1.289710283612314212E-01 3.227417274371960687E+00
pair_coeff 2     44   1.497747397064584929E-01 3.147970960317207023E+00
pair_coeff 3     44   1.172463894193012807E-01 3.279094253018750571E+00
pair_coeff 4     44   1.172463894193012807E-01 3.279094253018750571E+00
pair_coeff 5     44   9.194984947656417718E-02 3.456421974285966314E+00
pair_coeff 6      44   9.121344727734942426E-02 3.440457670474703633E+00
pair_coeff 7     44   9.121344727734942426E-02 3.440457670474703633E+00
pair_coeff 8     44   9.121344727734942426E-02 3.440457670474703633E+00
pair_coeff 9     44   9.121344727734942426E-02 3.440457670474703633E+00
pair_coeff 10     44   9.121344727734942426E-02 3.440457670474703633E+00
pair_coeff 11     44   9.121344727734942426E-02 3.440457670474703633E+00
pair_coeff 12      44   6.006149585721085732E-02 3.676278959205930619E+00
pair_coeff 13    44   9.537731641064108729E-03 5.005677781603687038E+00
pair_coeff 14    44   3.512749298213131699E-02 4.352230508580356094E+00
pair_coeff 15    44   7.306635652965057237E-02 3.919340305384166889E+00
pair_coeff 16    44   1.061905002323981356E-01 3.760888810862612175E+00
pair_coeff 17    44   1.281877228920814960E-01 3.741790038931789741E+00
pair_coeff 18   44   7.894630627842579018E-02 3.863263336867006181E+00
pair_coeff 19    44   8.084908897847854770E-02 3.757512147015167780E+00
pair_coeff 20     44   3.923548397794881376E-02 2.992827190399418136E+00
pair_coeff 21      44   0.000000000000000000E+00 0.000000000000000000E+00
pair_coeff 22    44   0.000000000000000000E+00 0.000000000000000000E+00
pair_coeff 23      44   1.574290590790217992E-01 3.533117597747393646E+00
pair_coeff 24   44   3.330755342032887256E-01 2.393804074470089471E+00
pair_coeff 25   44   3.330755342032887256E-01 2.393804074470089471E+00
pair_coeff 26     44   0.000000000000000000E+00 0.000000000000000000E+00
pair_coeff 27   44   2.454186650227814237E-01 2.518804491957598035E+00
pair_coeff 28   44   6.376275916443908953E-02 2.701080629836012825E+00
pair_coeff 29   44   8.119081068730508999E-02 3.258283751802188988E+00
pair_coeff 30     44   1.138301662092522648E-01 3.587256491649024159E+00
pair_coeff 31      44   7.699933011103650415E-02 3.330991777931932241E+00
pair_coeff 32     44   1.277785420311642051E-01 3.618667028575163869E+00
pair_coeff 33     44   1.948664597630800355E-01 3.711840997978461676E+00
pair_coeff 34   44   1.150137601108388863E-01 3.686560557731444199E+00
pair_coeff 35   44   8.457116613851239917E-02 3.462582207945594348E+00
pair_coeff 36    44   1.665216242115909184E-02 3.432052267820347335E+00
pair_coeff 37    44   9.392724802379077975E-02 3.931514247848511001E+00
pair_coeff 38   44   7.440178263794279545E-02 3.582105712547747789E+00
pair_coeff 39  44   1.276559035272747666E-01 3.603087912685470684E+00
pair_coeff 40   44   3.278034626379167787E-02 2.882853973116679569E+00
pair_coeff 41  44   1.298797826027309477E-01 3.665368466287981519E+00
pair_coeff 42  44   1.061905002323981356E-01 3.760888810862612175E+00
pair_coeff 43  44   1.493431533973610947E-01 3.150477893680148966E+00
pair_coeff 44   44   5.440873251526867627E-02 3.773904045424884668E+00
pair_coeff 1      45  2.876124418215142975E-01 3.084725325848334254E+00
pair_coeff 2     45  3.340058550940822601E-01 3.008791526102005953E+00
pair_coeff 3     45  2.614658562013765786E-01 3.134117539883036763E+00
pair_coeff 4     45  2.614658562013765786E-01 3.134117539883036763E+00
pair_coeff 5     45  2.050531896125046272E-01 3.303605172335025486E+00
pair_coeff 6      45  2.034109724621096793E-01 3.288346689130147382E+00
pair_coeff 7     45  2.034109724621096793E-01 3.288346689130147382E+00
pair_coeff 8     45  2.034109724621096793E-01 3.288346689130147382E+00
pair_coeff 9     45  2.034109724621096793E-01 3.288346689130147382E+00
pair_coeff 10     45  2.034109724621096793E-01 3.288346689130147382E+00
pair_coeff 11     45  2.034109724621096793E-01 3.288346689130147382E+00
pair_coeff 12      45  1.339404182663543053E-01 3.513741746503062924E+00
pair_coeff 13    45  2.126966281947830981E-02 4.784364621384128213E+00
pair_coeff 14    45  7.833622915187883617E-02 4.159807837788846996E+00
pair_coeff 15    45  1.629419683127158180E-01 3.746056760816388831E+00
pair_coeff 16    45  2.368106190837268310E-01 3.594610791325419719E+00
pair_coeff 17    45  2.858656278157876152E-01 3.576356422441845595E+00
pair_coeff 18   45  1.760545776058381751E-01 3.692459091139371985E+00
pair_coeff 19    45  1.802978870185932558E-01 3.591383417979618908E+00
pair_coeff 20     45  8.749727358411062139E-02 2.860507038684394931E+00
pair_coeff 21      45  0.000000000000000000E+00 0.000000000000000000E+00
pair_coeff 22    45  0.000000000000000000E+00 0.000000000000000000E+00
pair_coeff 23      45  3.510754056218069463E-01 3.376909896193278637E+00
pair_coeff 24   45  7.427766446499820541E-01 2.287968188146278781E+00
pair_coeff 25   45  7.427766446499820541E-01 2.287968188146278781E+00
pair_coeff 26     45  0.000000000000000000E+00 0.000000000000000000E+00
pair_coeff 27   45  5.472970357193517321E-01 2.407442033882686516E+00
pair_coeff 28   45  1.421944377243884450E-01 2.581659301440933696E+00
pair_coeff 29   45  1.810599451051872477E-01 3.114227121418688515E+00
pair_coeff 30     45  2.538474917381768337E-01 3.428655178235952672E+00
pair_coeff 31      45  1.717127143456437521E-01 3.183720549298572955E+00
pair_coeff 32     45  2.849531321332268163E-01 3.458676979111828587E+00
pair_coeff 33     45  4.345628551909777593E-01 3.547731501255731335E+00
pair_coeff 34   45  2.564869708249599145E-01 3.523568770611071432E+00
pair_coeff 35   45  1.885983225059109647E-01 3.309493047117717079E+00
pair_coeff 36    45  3.713523227979241559E-02 3.280312909721536219E+00
pair_coeff 37    45  2.094628964423923267E-01 3.757692463746214351E+00
pair_coeff 38   45  1.659200415184466093E-01 3.423732127576304407E+00
pair_coeff 39  45  2.846796415670648783E-01 3.443786653735909642E+00
pair_coeff 40   45  7.310196369278490480E-02 2.755396004170551638E+00
pair_coeff 41  45  2.896390134456565679E-01 3.503313632949622392E+00
pair_coeff 42  45  2.368106190837268310E-01 3.594610791325419719E+00
pair_coeff 43  45  3.330433940375682744E-01 3.011187621858291141E+00
pair_coeff 44   45  1.213344470767514366E-01 3.607050590788261513E+00
pair_coeff 45  45  2.705824481996443320E-01 3.447574132224956678E+00
pair_coeff 1      46   1.591939588900956049E-01 2.914305969007454422E+00
pair_coeff 2     46   1.848727893277152534E-01 2.842567223260527687E+00
pair_coeff 3     46   1.297424277832890105E-01 3.015383630983031082E+00
pair_coeff 4     46   1.447217808091778302E-01 2.960969450834395111E+00
pair_coeff 5     46   1.134972772065044738E-01 3.121093535396749274E+00
pair_coeff 6      46   8.825115390810175930E-02 3.235378250992776650E+00
pair_coeff 7     46   7.620977424152966528E-02 3.315456605363892528E+00
pair_coeff 8     46   5.589047980555466449E-02 3.491313283895585595E+00
pair_coeff 9     46   9.314068008877877947E-02 3.206430958576428125E+00
pair_coeff 10     46   7.982867413568051074E-02 3.289919775276922032E+00
pair_coeff 11     46   8.642741534447667684E-02 3.246657975726112255E+00
pair_coeff 12      46   7.413624147890124361E-02 3.319620862051439580E+00
pair_coeff 13    46   1.177279330145077942E-02 4.520046649590542032E+00
pair_coeff 14    46   4.335923148605760197E-02 3.929994255893134447E+00
pair_coeff 15    46   9.018864705840204388E-02 3.539101354278793465E+00
pair_coeff 16    46   1.310750665736078457E-01 3.396022199330606561E+00
pair_coeff 17    46   1.582270944691577808E-01 3.378776314988137131E+00
pair_coeff 18   46   9.744649783680001121E-02 3.488464752259239798E+00
pair_coeff 19    46   9.979517656548757276E-02 3.392973126102896142E+00
pair_coeff 20     46   4.842988462435294378E-02 2.702474890510119909E+00
pair_coeff 21      46   0.000000000000000000E+00 0.000000000000000000E+00
pair_coeff 22    46   0.000000000000000000E+00 0.000000000000000000E+00
pair_coeff 23      46   1.943208135778947410E-01 3.190348451711801925E+00
pair_coeff 24   46   1.308118229063097715E-01 2.616115944782948066E+00
pair_coeff 25   46   7.194490382282986429E-02 2.890223855576281586E+00
pair_coeff 26     46   0.000000000000000000E+00 0.000000000000000000E+00
pair_coeff 27   46   3.029298080889223921E-01 2.274440006244081047E+00
pair_coeff 28   46   7.870485480438377257E-02 2.439032431538718626E+00
pair_coeff 29   46   1.002169769679346900E-01 2.942177902435911818E+00
pair_coeff 30     46   1.405050035672634479E-01 3.239235003477465291E+00
pair_coeff 31      46   9.504326939170110178E-02 3.007832082398090190E+00
pair_coeff 32     46   1.577220266102814239E-01 3.267598213893569081E+00
pair_coeff 33     46   2.405312540247006858E-01 3.351732811965022041E+00
pair_coeff 34   46   1.419659595765774829E-01 3.328904980405696268E+00
pair_coeff 35   46   1.043894812394069449E-01 3.126656127462947410E+00
pair_coeff 36    46   2.055441205353729026E-02 3.099088081816367968E+00
pair_coeff 37    46   1.159380571788471426E-01 3.550094228820277475E+00
pair_coeff 38   46   9.183701546862199638E-02 3.234583932666422079E+00
pair_coeff 39  46   1.575706491327610870E-01 3.253530522433367267E+00
pair_coeff 40   46   4.046205695828821586E-02 2.603170841386070578E+00
pair_coeff 41  46   1.603156696122686187E-01 3.309768862160356484E+00
pair_coeff 42  46   1.310750665736078457E-01 3.396022199330606561E+00
pair_coeff 43  46   1.843400655522983711E-01 2.844830943827911796E+00
pair_coeff 44   46   6.715881572284602974E-02 3.407774747126039561E+00
pair_coeff 45  46   1.497678294522704623E-01 3.257108757122733511E+00
pair_coeff 46   46   8.289673956344170702E-02 3.077165870507050371E+00
pair_coeff 1      47   1.722085049816445279E-01 3.045791995942584762E+00
pair_coeff 2     47   1.999866507741778487E-01 2.970816581583684446E+00
pair_coeff 3     47   1.565531863469495633E-01 3.094560814646859725E+00
pair_coeff 4     47   1.565531863469495633E-01 3.094560814646859725E+00
pair_coeff 5     47   1.227759932819626476E-01 3.261909288109908545E+00
pair_coeff 6      47   1.217927125916918318E-01 3.246843387225244904E+00
pair_coeff 7     47   1.217927125916918318E-01 3.246843387225244904E+00
pair_coeff 8     47   1.217927125916918318E-01 3.246843387225244904E+00
pair_coeff 9     47   1.217927125916918318E-01 3.246843387225244904E+00
pair_coeff 10     47   1.217927125916918318E-01 3.246843387225244904E+00
pair_coeff 11     47   1.217927125916918318E-01 3.246843387225244904E+00
pair_coeff 12      47   8.019708410451541203E-02 3.469393659665676477E+00
pair_coeff 13    47   1.273525168942131643E-02 4.723979586569880595E+00
pair_coeff 14    47   4.690396848866595220E-02 4.107305538950095425E+00
pair_coeff 15    47   9.756181820295757590E-02 3.698776550000724583E+00
pair_coeff 16    47   1.417908155082314992E-01 3.549242029754096084E+00
pair_coeff 17    47   1.711625967222450972E-01 3.531218055246321708E+00
pair_coeff 18   47   1.054130183404619059E-01 3.645855354088885392E+00
pair_coeff 19    47   1.079537080460851450E-01 3.546055390145638864E+00
pair_coeff 20     47   5.238916153439685669E-02 2.824403641308426582E+00
pair_coeff 21      47   0.000000000000000000E+00 0.000000000000000000E+00
pair_coeff 22    47   0.000000000000000000E+00 0.000000000000000000E+00
pair_coeff 23      47   2.102070771175983122E-01 3.334288809009665400E+00
pair_coeff 24   47   4.447389504444150266E-01 2.259090991354548272E+00
pair_coeff 25   47   4.447389504444150266E-01 2.259090991354548272E+00
pair_coeff 26     47   0.000000000000000000E+00 0.000000000000000000E+00
pair_coeff 27   47   3.276951570843523731E-01 2.377056918505081384E+00
pair_coeff 28   47   8.513919419528666321E-02 2.549075332798732774E+00
pair_coeff 29   47   1.084099917971301230E-01 3.074921439676577162E+00
pair_coeff 30     47   1.519916759119208927E-01 3.385380996878945226E+00
pair_coeff 31      47   1.028133193283557872E-01 3.143537768214339501E+00
pair_coeff 32     47   1.706162381700878361E-01 3.415023882760973351E+00
pair_coeff 33     47   2.601953487792239561E-01 3.502954418577414852E+00
pair_coeff 34   47   1.535720691125297410E-01 3.479096653679860207E+00
pair_coeff 35   47   1.129236098240292002E-01 3.267722850094167519E+00
pair_coeff 36    47   2.223479204358534689E-02 3.238911004781051872E+00
pair_coeff 37    47   1.254163137624429714E-01 3.710265394908199177E+00
pair_coeff 38   47   9.934494528618387221E-02 3.380520081656078979E+00
pair_coeff 39  47   1.704524851654297402E-01 3.400321493064580203E+00
pair_coeff 40   47   4.376994193654968474E-02 2.720619247630047699E+00
pair_coeff 41  47   1.734219186553421499E-01 3.459097162753066002E+00
pair_coeff 42  47   1.417908155082314992E-01 3.549242029754096084E+00
pair_coeff 43  47   1.994103753578723159E-01 2.973182435429682080E+00
pair_coeff 44   47   7.264923450991972453E-02 3.561524822428556725E+00
pair_coeff 45  47   1.620117634119973837E-01 3.404061168545596594E+00
pair_coeff 46   47   8.967377711819192465E-02 3.215999719401493095E+00
pair_coeff 47   47   9.700485622222822235E-02 3.361097396249958624E+00
pair_coeff 1      48  1.891372059020736129E-01 3.289260052245521315E+00
pair_coeff 2     48  2.196460409964854366E-01 3.208291412338459381E+00
pair_coeff 3     48  1.719429144564305345E-01 3.341927249274361689E+00
pair_coeff 4     48  1.719429144564305345E-01 3.341927249274361689E+00
pair_coeff 5     48  1.348453046710865466E-01 3.522652869835305456E+00
pair_coeff 6      48  1.337653640351980922E-01 3.506382662940996653E+00
pair_coeff 7     48  1.337653640351980922E-01 3.506382662940996653E+00
pair_coeff 8     48  1.337653640351980922E-01 3.506382662940996653E+00
pair_coeff 9     48  1.337653640351980922E-01 3.506382662940996653E+00
pair_coeff 10     48  1.337653640351980922E-01 3.506382662940996653E+00
pair_coeff 11     48  1.337653640351980922E-01 3.506382662940996653E+00
pair_coeff 12      48  8.808073916348332921E-02 3.746722686727856910E+00
pair_coeff 13    48  1.398717166294168902E-02 5.101595040773273304E+00
pair_coeff 14    48  5.151479334084436285E-02 4.435626611939518682E+00
pair_coeff 15    48  1.071524876172654656E-01 3.994441499717314326E+00
pair_coeff 16    48  1.557293507115795339E-01 3.832953806357374926E+00
pair_coeff 17    48  1.879884811870324024E-01 3.813489069628770434E+00
pair_coeff 18   48  1.157754883055521766E-01 3.937290001564532460E+00
pair_coeff 19    48  1.185659367333865843E-01 3.829512439915094824E+00
pair_coeff 20     48  5.753920012965894198E-02 3.050174825184523542E+00
pair_coeff 21      48  0.000000000000000000E+00 0.000000000000000000E+00
pair_coeff 22    48  0.000000000000000000E+00 0.000000000000000000E+00
pair_coeff 23      48  2.308711711486143847E-01 3.600818111261308019E+00
pair_coeff 24   48  4.884583514144283378E-01 2.439673412415888976E+00
pair_coeff 25   48  4.884583514144283378E-01 2.439673412415888976E+00
pair_coeff 26     48  0.000000000000000000E+00 0.000000000000000000E+00
pair_coeff 27   48  3.599087420518621294E-01 2.567069049484753673E+00
pair_coeff 28   48  9.350867603529200434E-02 2.752837906695117631E+00
pair_coeff 29   48  1.190670747798516088E-01 3.320717983629539294E+00
pair_coeff 30     48  1.669329915233766226E-01 3.655994398008439283E+00
pair_coeff 31      48  1.129202297491380125E-01 3.394819218609366196E+00
pair_coeff 32     48  1.873884136701188530E-01 3.688006813989214816E+00
pair_coeff 33     48  2.857734654979058875E-01 3.782966154357451316E+00
pair_coeff 34   48  1.686687429267214045E-01 3.757201298084295260E+00
pair_coeff 35   48  1.240243973128351274E-01 3.528931143998987441E+00
pair_coeff 36    48  2.442055020096505283E-02 3.497816198544354993E+00
pair_coeff 37    48  1.377451779288986211E-01 4.006848715525531901E+00
pair_coeff 38   48  1.091109023559897889E-01 3.650744921261102061E+00
pair_coeff 39  48  1.872085631699220987E-01 3.672129175869041973E+00
pair_coeff 40   48  4.807268097041665633E-02 2.938094334912183747E+00
pair_coeff 41  48  1.904699024019997078E-01 3.735603130297924235E+00
pair_coeff 42  48  1.557293507115795339E-01 3.832953806357374926E+00
pair_coeff 43  48  2.190131156825951553E-01 3.210846382788003606E+00
pair_coeff 44   48  7.979090944198904967E-02 3.846218434844132616E+00
pair_coeff 45  48  1.779380888201725353E-01 3.676167785591720083E+00
pair_coeff 46   48  9.848902438719817076E-02 3.473073479460133228E+00
pair_coeff 47   48  1.065407743175067756E-01 3.629769666450928245E+00
pair_coeff 48  48  1.170141066563726712E-01 3.919918490367800601E+00
pair_coeff 1      49   2.491558874764578380E-01 2.855793572536012626E+00
pair_coeff 2     49   2.893460544378792521E-01 2.785495171755656862E+00
pair_coeff 3     49   2.030610329881481768E-01 2.954841833242532800E+00
pair_coeff 4     49   2.265053522513252593E-01 2.901520161607548776E+00
pair_coeff 5     49   1.776356026680076250E-01 3.058429331874637391E+00
pair_coeff 6      49   1.762129657718276565E-01 3.044303251377937780E+00
pair_coeff 7     49   1.192765986091082336E-01 3.248890049401691016E+00
pair_coeff 8     49   1.762129657718276565E-01 3.044303251377937780E+00
pair_coeff 9     49   1.457753106303604218E-01 3.142053380689358466E+00
pair_coeff 10     49   1.762129657718276565E-01 3.044303251377937780E+00
pair_coeff 11     49   1.762129657718276565E-01 3.044303251377937780E+00
pair_coeff 12      49   1.160312939550487005E-01 3.252970697627771912E+00
pair_coeff 13    49   1.842570398745426927E-02 4.429294764084048097E+00
pair_coeff 14    49   6.786192061888589311E-02 3.851089232029210496E+00
pair_coeff 15    49   1.411550573577402545E-01 3.468044538763741080E+00
pair_coeff 16    49   2.051467578661674285E-01 3.327838076089515873E+00
pair_coeff 17    49   2.476426393321955743E-01 3.310938448465757133E+00
pair_coeff 18   49   1.525143844607987631E-01 3.418424600390641999E+00
pair_coeff 19    49   1.561903225248004456E-01 3.324850221067261025E+00
pair_coeff 20     49   7.579804515254030817E-02 2.648215562927745292E+00
pair_coeff 21      49   0.000000000000000000E+00 0.000000000000000000E+00
pair_coeff 22    49   0.000000000000000000E+00 0.000000000000000000E+00
pair_coeff 23      49   3.041332416110918979E-01 3.126293772665116322E+00
pair_coeff 24   49   6.434602513106866262E-01 2.118167472197251655E+00
pair_coeff 25   49   6.434602513106866262E-01 2.118167472197251655E+00
pair_coeff 26     49   0.000000000000000000E+00 0.000000000000000000E+00
pair_coeff 27   49   4.741181493550025716E-01 2.228774610499382636E+00
pair_coeff 28   49   1.231816714918823885E-01 2.390062407746226469E+00
pair_coeff 29   49   1.568504861035088516E-01 2.883105903219756350E+00
pair_coeff 30     49   2.199056365125826029E-01 3.174198797669536276E+00
pair_coeff 31      49   1.487530701482332185E-01 2.947441901958409272E+00
pair_coeff 32     49   2.468521531134249269E-01 3.201992541656678348E+00
pair_coeff 33     49   3.764576148503470665E-01 3.284437915256962270E+00
pair_coeff 34   49   2.221921918165813414E-01 3.262068412762940017E+00
pair_coeff 35   49   1.633809098206280841E-01 3.063880240200058669E+00
pair_coeff 36    49   3.216989396118666994E-02 3.036865695947625898E+00
pair_coeff 37    49   1.814556892113898812E-01 3.478816702288478169E+00
pair_coeff 38   49   1.437349334849495619E-01 3.169641109400411327E+00
pair_coeff 39  49   2.466152308707815766E-01 3.188207296291331261E+00
pair_coeff 40   49   6.332752687886390730E-02 2.550905305106105025E+00
pair_coeff 41  49   2.509114869503538681E-01 3.243316502678857738E+00
pair_coeff 42  49   2.051467578661674285E-01 3.327838076089515873E+00
pair_coeff 43  49   2.223108962183115156E-01 2.911490578234520399E+00
pair_coeff 44   49   1.051108625600908064E-01 3.339354660419386889E+00
pair_coeff 45  49   2.344029680696937956E-01 3.191713688460029452E+00
pair_coeff 46   49   1.297424277832890105E-01 3.015383630983031082E+00
pair_coeff 47   49   1.403492298138912242E-01 3.151430023345263898E+00
pair_coeff 48  49   1.541460520799295686E-01 3.403342348080735658E+00
pair_coeff 49   49   2.030610329881481768E-01 2.954841833242532800E+00
pair_coeff 1      50  1.791876903161000734E-01 3.217141909372776443E+00
pair_coeff 2     50  2.080916157427709912E-01 3.137948534372799969E+00
pair_coeff 3     50  1.628979002873637005E-01 3.268654360233876233E+00
pair_coeff 4     50  1.628979002873637005E-01 3.268654360233876233E+00
pair_coeff 5     50  1.277518010205411225E-01 3.445417510233855118E+00
pair_coeff 6      50  1.267286703926965574E-01 3.429504033147082964E+00
pair_coeff 7     50  1.267286703926965574E-01 3.429504033147082964E+00
pair_coeff 8     50  1.267286703926965574E-01 3.429504033147082964E+00
pair_coeff 9     50  1.267286703926965574E-01 3.429504033147082964E+00
pair_coeff 10     50  1.267286703926965574E-01 3.429504033147082964E+00
pair_coeff 11     50  1.267286703926965574E-01 3.429504033147082964E+00
pair_coeff 12      50  8.344727382835046003E-02 3.664574520351796316E+00
pair_coeff 13    50  1.325137998303192385E-02 4.989740838251888633E+00
pair_coeff 14    50  4.880487047395847683E-02 4.338373993220113078E+00
pair_coeff 15    50  1.015157577071503781E-01 3.906862014301811126E+00
pair_coeff 16    50  1.475372470231036959E-01 3.748914993420465080E+00
pair_coeff 17    50  1.780993939784465407E-01 3.729877027650093879E+00
pair_coeff 18   50  1.096851475929681435E-01 3.850963582140682906E+00
pair_coeff 19    50  1.123288051765993917E-01 3.745549080105277095E+00
pair_coeff 20     50  5.451236484485043332E-02 2.983298707049888421E+00
pair_coeff 21      50  0.000000000000000000E+00 0.000000000000000000E+00
pair_coeff 22    50  0.000000000000000000E+00 0.000000000000000000E+00
pair_coeff 23      50  2.187262507204020268E-01 3.521868952215817750E+00
pair_coeff 24   50  4.627631215556714528E-01 2.386182744932990651E+00
pair_coeff 25   50  4.627631215556714528E-01 2.386182744932990651E+00
pair_coeff 26     50  0.000000000000000000E+00 0.000000000000000000E+00
pair_coeff 27   50  3.409758323607505748E-01 2.510785189426758102E+00
pair_coeff 28   50  8.858967543358814423E-02 2.692481001401170193E+00
pair_coeff 29   50  1.128035809810071233E-01 3.247910114935789849E+00
pair_coeff 30     50  1.581515231017961709E-01 3.575835480151661638E+00
pair_coeff 31      50  1.069800892014212690E-01 3.320386655192049563E+00
pair_coeff 32     50  1.775308928637313044E-01 3.607146013048481148E+00
pair_coeff 33     50  2.707404235563790063E-01 3.700023337654205324E+00
pair_coeff 34   50  1.597959657350944140E-01 3.674823384598274068E+00
pair_coeff 35   50  1.175001247974426788E-01 3.451558131105934013E+00
pair_coeff 36    50  2.313591324292333176E-02 3.421125391389411519E+00
pair_coeff 37    50  1.304991271682363063E-01 3.918997197692981160E+00
pair_coeff 38   50  1.033711505265553082E-01 3.570701099963447422E+00
pair_coeff 39  50  1.773605033542809684E-01 3.591616497532251984E+00
pair_coeff 40   50  4.554382956704794427E-02 2.873675619561858241E+00
pair_coeff 41  50  1.804502806487379984E-01 3.653698763970068875E+00
pair_coeff 42  50  1.475372470231036959E-01 3.748914993420465080E+00
pair_coeff 43  50  2.074919853073012854E-01 3.140447486228195473E+00
pair_coeff 44   50  7.559352853363882074E-02 3.761888790426231033E+00
pair_coeff 45  50  1.685776999976196511E-01 3.595566559366237147E+00
pair_coeff 46   50  9.330803380147963122E-02 3.396925164817679033E+00
pair_coeff 47   50  1.009362234330945657E-01 3.550185734733046772E+00
pair_coeff 48  50  1.108586087340911325E-01 3.833972947222050731E+00
pair_coeff 49   50  1.460372374214344571E-01 3.328722912157391800E+00
pair_coeff 50  50  1.050269192461420475E-01 3.749911789275832241E+00
pair_coeff 1      51  2.533852259367075921E-01 2.858274758416932571E+00
pair_coeff 2     51  2.942576076375654770E-01 2.787915280603157520E+00
pair_coeff 3     51  2.065079265987836976E-01 2.957409074764294044E+00
pair_coeff 4     51  2.303502053970068741E-01 2.904041075908715186E+00
pair_coeff 5     51  1.806509080412127821E-01 3.061086572842267373E+00
pair_coeff 6      51  1.404672559692889122E-01 3.173174020534739626E+00
pair_coeff 7     51  1.213012792659237393E-01 3.251712767470937848E+00
pair_coeff 8     51  8.895954313830781168E-02 3.424188379397632431E+00
pair_coeff 9     51  1.482497981251104935E-01 3.144783276351368784E+00
pair_coeff 10     51  1.270613958791100284E-01 3.226666915174094541E+00
pair_coeff 11     51  1.375644548126654931E-01 3.184236878323198461E+00
pair_coeff 12      51  1.180008866429317071E-01 3.255796961067685569E+00
pair_coeff 13    51  1.873847419457483343E-02 4.433143047705374151E+00
pair_coeff 14    51  6.901385418853510367E-02 3.854435156020554309E+00
pair_coeff 15    51  1.435511175872953848E-01 3.471057663811270455E+00
pair_coeff 16    51  2.086290559640636977E-01 3.330729386206531473E+00
pair_coeff 17    51  2.518462909076551459E-01 3.313815075757705841E+00
pair_coeff 18   51  1.551032654961799484E-01 3.421394614377313736E+00
pair_coeff 19    51  1.588416013882605060E-01 3.327738935260058373E+00
pair_coeff 20     51  7.708469180103937057E-02 2.650516399769581533E+00
pair_coeff 21      51  0.000000000000000000E+00 0.000000000000000000E+00
pair_coeff 22    51  0.000000000000000000E+00 0.000000000000000000E+00
pair_coeff 23      51  3.092958024031092212E-01 3.129009975979999414E+00
pair_coeff 24   51  2.082100572999197041E-01 2.565817813773293210E+00
pair_coeff 25   51  1.145129867819162373E-01 2.834655654012085524E+00
pair_coeff 26     51  0.000000000000000000E+00 0.000000000000000000E+00
pair_coeff 27   51  4.821661475142233755E-01 2.230711026404406550E+00
pair_coeff 28   51  1.252726394642434959E-01 2.392138954579879240E+00
pair_coeff 29   51  1.595129710245168642E-01 2.885610818746235928E+00
pair_coeff 30     51  2.236384616749672039E-01 3.176956622085050697E+00
pair_coeff 31      51  1.512781041220645495E-01 2.950002714232202727E+00
pair_coeff 32     51  2.510423864477937528E-01 3.204774513981840212E+00
pair_coeff 33     51  3.828478578635327034E-01 3.287291518213585562E+00
pair_coeff 34   51  2.259638304960239485E-01 3.264902580528488585E+00
pair_coeff 35   51  1.661542465158737936E-01 3.066542217055081565E+00
pair_coeff 36    51  3.271596722949368652E-02 3.039504201881492840E+00
pair_coeff 37    51  1.845358392852482765E-01 3.481839186464868341E+00
pair_coeff 38   51  1.461747862551426580E-01 3.172394973980771304E+00
pair_coeff 39  51  2.508014425287490301E-01 3.190977291645715308E+00
pair_coeff 40   51  6.440249062037527172E-02 2.553121596328082887E+00
pair_coeff 41  51  2.551706261287441935E-01 3.246134378309362578E+00
pair_coeff 42  51  2.086290559640636977E-01 3.330729386206531473E+00
pair_coeff 43  51  2.934096839152270930E-01 2.790135478285444393E+00
pair_coeff 44   51  1.068950845510619613E-01 3.342255976436936837E+00
pair_coeff 45  51  2.383818806215697028E-01 3.194486730256854035E+00
pair_coeff 46   51  1.319447624152647047E-01 3.018003472754054783E+00
pair_coeff 47   51  1.427316113884563031E-01 3.154168065672212862E+00
pair_coeff 48  51  1.567626301313670423E-01 3.406299258224103177E+00
pair_coeff 49   51  2.065079265987836976E-01 2.957409074764294044E+00
pair_coeff 50  51  1.485161710364928667E-01 3.331614991042423313E+00
pair_coeff 51  51  2.100133300839540085E-01 2.959978546770596353E+00
pair_coeff 1      52  2.017250681962091674E-01 3.056690580133286872E+00
pair_coeff 2     52  1.238182113317307792E-01 3.315741788485744745E+00
pair_coeff 3     52  1.857777726664354978E-01 3.098935224280011003E+00
pair_coeff 4     52  1.857777726664354978E-01 3.098935224280011003E+00
pair_coeff 5     52  1.625163928514463119E-01 3.207574185829374258E+00
pair_coeff 6      52  1.263665486179660624E-01 3.325025553250206656E+00
pair_coeff 7     52  1.091245350954258148E-01 3.407322754347013039E+00
pair_coeff 8     52  8.002940155303392422E-02 3.588052148088892501E+00
pair_coeff 9     52  1.333678457168430698E-01 3.295276176356722875E+00
pair_coeff 10     52  1.143064264267728281E-01 3.381078338392825344E+00
pair_coeff 11     52  1.237551431273730129E-01 3.336617821622679614E+00
pair_coeff 12      52  1.061554500800334505E-01 3.411602396114444158E+00
pair_coeff 13    52  1.685742555441499188E-02 4.645290116282322579E+00
pair_coeff 14    52  6.208594665318631356E-02 4.038888287934027765E+00
pair_coeff 15    52  1.291408389420262981E-01 3.637164351620559177E+00
pair_coeff 16    52  1.876859739423346884E-01 3.490120695691245611E+00
pair_coeff 17    52  2.265648769503596782E-01 3.472396954700678773E+00
pair_coeff 18   52  1.395333325541259217E-01 3.585124688068666021E+00
pair_coeff 19    52  1.428963982095136920E-01 3.486987137383879443E+00
pair_coeff 20     52  6.934659887074805240E-02 2.777356268994485955E+00
pair_coeff 21      52  0.000000000000000000E+00 0.000000000000000000E+00
pair_coeff 22    52  0.000000000000000000E+00 0.000000000000000000E+00
pair_coeff 23      52  2.782473593721414562E-01 3.278748048225554435E+00
pair_coeff 24   52  5.886930177039987333E-01 2.221460288218898071E+00
pair_coeff 25   52  5.886930177039987333E-01 2.221460288218898071E+00
pair_coeff 26     52  0.000000000000000000E+00 0.000000000000000000E+00
pair_coeff 27   52  4.337642356672424815E-01 2.337461203423603529E+00
pair_coeff 28   52  1.126972330748762380E-01 2.506614228980403869E+00
pair_coeff 29   52  1.435003728738950268E-01 3.023701078785963059E+00
pair_coeff 30     52  2.011886709474526580E-01 3.328989170351303706E+00
pair_coeff 31      52  9.673967369602196054E-02 3.272112746045770404E+00
pair_coeff 32     52  2.258416718780438259E-01 3.358138281240213630E+00
pair_coeff 33     52  3.444159431332070587E-01 3.444604118245261581E+00
pair_coeff 34   52  2.032806092440548607E-01 3.421143762957048029E+00
pair_coeff 35   52  1.494749685650599014E-01 3.213290908675224156E+00
pair_coeff 36    52  2.943179771656875832E-02 3.184958995335595677E+00
pair_coeff 37    52  1.660113379868037031E-01 3.648461821628244284E+00
pair_coeff 38   52  1.315011324637096746E-01 3.324209225597718920E+00
pair_coeff 39  52  2.256249149459740866E-01 3.343680795916493587E+00
pair_coeff 40   52  5.793749159503105983E-02 2.675300659027595618E+00
pair_coeff 41  52  2.295555011028669046E-01 3.401477412620344865E+00
pair_coeff 42  52  1.876859739423346884E-01 3.490120695691245611E+00
pair_coeff 43  52  2.033892102840210714E-01 3.053469937559857073E+00
pair_coeff 44   52  9.616449617195252375E-02 3.502198888317909375E+00
pair_coeff 45  52  2.144520820837692021E-01 3.347358177927088452E+00
pair_coeff 46   52  1.186995796250189389E-01 3.162429353626820649E+00
pair_coeff 47   52  1.284035983003997405E-01 3.305110072670552235E+00
pair_coeff 48  52  1.410261230297450152E-01 3.569306947024517562E+00
pair_coeff 49   52  1.857777726664354978E-01 3.098935224280011003E+00
pair_coeff 50  52  1.336074789696210519E-01 3.491048680948393823E+00
pair_coeff 51  52  1.889312886718397255E-01 3.101627657794223669E+00
pair_coeff 52  52  1.699655532576562489E-01 3.250055355330133011E+00
pair_coeff 1      53   2.517150719017874350E-01 3.216286733597559344E+00
pair_coeff 2     53   8.204532982457217460E-02 3.877013547662570669E+00
pair_coeff 3     53   2.288318835470794788E-01 3.267785491497223305E+00
pair_coeff 4     53   2.288318835470794788E-01 3.267785491497223305E+00
pair_coeff 5     53   1.794601723072659361E-01 3.444501654585188533E+00
pair_coeff 6      53   1.780229229119614787E-01 3.428592407594721170E+00
pair_coeff 7     53   1.780229229119614787E-01 3.428592407594721170E+00
pair_coeff 8     53   1.780229229119614787E-01 3.428592407594721170E+00
pair_coeff 9     53   1.780229229119614787E-01 3.428592407594721170E+00
pair_coeff 10     53   1.780229229119614787E-01 3.428592407594721170E+00
pair_coeff 11     53   1.780229229119614787E-01 3.428592407594721170E+00
pair_coeff 12      53   1.172230999498745652E-01 3.663600408719620116E+00
pair_coeff 13    53   1.861496210673063006E-02 4.988414472922134912E+00
pair_coeff 14    53   6.855895881485152277E-02 4.337220773235620719E+00
pair_coeff 15    53   1.426049200441300291E-01 3.905823498176049124E+00
pair_coeff 16    53   2.072539060975635561E-01 3.747918462531858008E+00
pair_coeff 17    53   2.501862805523388245E-01 3.728885557404626905E+00
pair_coeff 18   53   1.540809235512614617E-01 3.849939924851243589E+00
pair_coeff 19    53   1.577946187139902257E-01 3.744553443938634096E+00
pair_coeff 20     53   7.657659860592054557E-02 2.982505691119483604E+00
pair_coeff 21      53   0.000000000000000000E+00 0.000000000000000000E+00
pair_coeff 22    53   0.000000000000000000E+00 0.000000000000000000E+00
pair_coeff 23      53   3.072571214561132247E-01 3.520932774360979955E+00
pair_coeff 24   53   6.500695009260647472E-01 2.385548453460561547E+00
pair_coeff 25   53   6.500695009260647472E-01 2.385548453460561547E+00
pair_coeff 26     53   0.000000000000000000E+00 0.000000000000000000E+00
pair_coeff 27   53   4.789880153488779158E-01 2.510117776321816319E+00
pair_coeff 28   53   1.244469220077783211E-01 2.691765290191502125E+00
pair_coeff 29   53   1.584615631091823018E-01 3.247046760402909182E+00
pair_coeff 30     53   2.221643793651205678E-01 3.574884956996347896E+00
pair_coeff 31      53   1.502809752047785663E-01 3.319504035055336644E+00
pair_coeff 32     53   2.493876749186909880E-01 3.606187166974876845E+00
pair_coeff 33     53   3.803243686103310317E-01 3.699039803071263677E+00
pair_coeff 34   53   2.244744208358758208E-01 3.673846548628572073E+00
pair_coeff 35   53   1.650590635421556873E-01 3.450640643166755339E+00
pair_coeff 36    53   3.250032440946476475E-02 3.420215993034873669E+00
pair_coeff 37    53   1.833194965587523484E-01 3.917955455811204413E+00
pair_coeff 38   53   1.452112951590650569E-01 3.569751941621275737E+00
pair_coeff 39  53   2.491483191485096838E-01 3.590661779490871286E+00
pair_coeff 40   53   6.397799041847561374E-02 2.872911743474042101E+00
pair_coeff 41  53   2.534887038728330655E-01 3.652727543314932213E+00
pair_coeff 42  53   2.072539060975635561E-01 3.747918462531858008E+00
pair_coeff 43  53   2.914757141438480414E-01 3.139612697248032713E+00
pair_coeff 44   53   1.061905002323981356E-01 3.760888810862612175E+00
pair_coeff 45  53   2.368106190837268310E-01 3.594610791325419719E+00
pair_coeff 46   53   1.310750665736078457E-01 3.396022199330606561E+00
pair_coeff 47   53   1.417908155082314992E-01 3.549242029754096084E+00
pair_coeff 48  53   1.557293507115795339E-01 3.832953806357374926E+00
pair_coeff 49   53   2.051467578661674285E-01 3.327838076089515873E+00
pair_coeff 50  53   1.475372470231036959E-01 3.748914993420465080E+00
pair_coeff 51  53   2.086290559640636977E-01 3.330729386206531473E+00
pair_coeff 52  53   1.876859739423346884E-01 3.490120695691245611E+00
pair_coeff 53   53   2.072539060975635561E-01 3.747918462531858008E+00
pair_coeff 1      54      5.058019451083491935E-01 3.259627155281799471E+00
pair_coeff 2     54      5.873904832288343592E-01 3.179387960698472515E+00
pair_coeff 3     54      4.598199500984992416E-01 3.311819874282714959E+00
pair_coeff 4     54      4.598199500984992416E-01 3.311819874282714959E+00
pair_coeff 5     54      3.606113195236524960E-01 3.490917340301991079E+00
pair_coeff 6      54      3.577232781590320432E-01 3.474793711469867041E+00
pair_coeff 7     54      3.577232781590320432E-01 3.474793711469867041E+00
pair_coeff 8     54      3.577232781590320432E-01 3.474793711469867041E+00
pair_coeff 9     54      3.577232781590320432E-01 3.474793711469867041E+00
pair_coeff 10     54      3.577232781590320432E-01 3.474793711469867041E+00
pair_coeff 11     54      3.577232781590320432E-01 3.474793711469867041E+00
pair_coeff 12      54      2.355507420287134279E-01 3.712968515405449921E+00
pair_coeff 13    54      3.740532488009395973E-02 5.055634843709905013E+00
pair_coeff 14    54      1.377639187878478000E-01 4.395666114966524596E+00
pair_coeff 15    54      2.865535440344418872E-01 3.958455633136796159E+00
pair_coeff 16    54      4.164606753319582411E-01 3.798422780106363472E+00
pair_coeff 17    54      5.027299572755441481E-01 3.779133400913722962E+00
pair_coeff 18   54      3.096136844230243934E-01 3.901819012016897847E+00
pair_coeff 19    54      3.170760672777966915E-01 3.795012416885348738E+00
pair_coeff 20     54      1.538747450918169224E-01 3.022695843626246770E+00
pair_coeff 21      54      0.000000000000000000E+00 0.000000000000000000E+00
pair_coeff 22    54      0.000000000000000000E+00 0.000000000000000000E+00
pair_coeff 23      54      6.174093927181751873E-01 3.568378392181247971E+00
pair_coeff 24   54      1.306264323148313311E+00 2.417694429390239375E+00
pair_coeff 25   54      1.306264323148313311E+00 2.417694429390239375E+00
pair_coeff 26     54      0.000000000000000000E+00 0.000000000000000000E+00
pair_coeff 27   54      9.624893257944396874E-01 2.543942360979170036E+00
pair_coeff 28   54      2.500664530681778186E-01 2.728037629200720460E+00
pair_coeff 29   54      3.184162403942434882E-01 3.290801682610015710E+00
pair_coeff 30     54      4.464221167515604050E-01 3.623057596546916947E+00
pair_coeff 31      54      3.019779824746237074E-01 3.364235340619288195E+00
pair_coeff 32     54      5.011252210957767295E-01 3.654781613128054829E+00
pair_coeff 33     54      7.642323678189105740E-01 3.748885466151363310E+00
pair_coeff 34   54      4.510639662060295652E-01 3.723352725101418237E+00
pair_coeff 35   54      3.316734066284257043E-01 3.497139053583150137E+00
pair_coeff 36    54      6.530688519666234815E-02 3.466304422228967397E+00
pair_coeff 37    54      3.683663327553086675E-01 3.970751072514505431E+00
pair_coeff 38   54      2.917908529999159173E-01 3.617855412260831294E+00
pair_coeff 39  54      5.006442542104175830E-01 3.639047016423571534E+00
pair_coeff 40   54      1.285588175284727575E-01 2.911625084894475357E+00
pair_coeff 41  54      5.093659212107068956E-01 3.701949134901025840E+00
pair_coeff 42  54      4.164606753319582411E-01 3.798422780106363472E+00
pair_coeff 43  54      5.856978767776226391E-01 3.181919913455625970E+00
pair_coeff 44   54      2.133815872199037178E-01 3.811567907744004557E+00
pair_coeff 45  54      4.758526013158087542E-01 3.643049242368777918E+00
pair_coeff 46   54      2.633851963143667985E-01 3.441784609948579376E+00
pair_coeff 47   54      2.849176640107791147E-01 3.597069123222504494E+00
pair_coeff 48  54      3.129260711536197559E-01 3.884604000517125399E+00
pair_coeff 49   54      4.122265241306839467E-01 3.372681685338640545E+00
pair_coeff 50  54      2.964646731576463523E-01 3.799432739545504756E+00
pair_coeff 51  54      4.192239325022028562E-01 3.375611956720639295E+00
pair_coeff 52  54      3.771404309338606820E-01 3.537151111574271312E+00
pair_coeff 53   54      4.164606753319582411E-01 3.798422780106363472E+00
pair_coeff 54      54      8.368454779149256950E-01 3.849607658402551813E+00
pair_coeff 1      55  3.175870057215742226E-01 3.004156156701421221E+00
pair_coeff 2     55  3.688154752311860185E-01 2.930205652875953248E+00
pair_coeff 3     55  2.887154597468856720E-01 3.052258307853131569E+00
pair_coeff 4     55  2.887154597468856720E-01 3.052258307853131569E+00
pair_coeff 5     55  2.264235444414708642E-01 3.217319135230157112E+00
pair_coeff 6      55  2.246101777309229275E-01 3.202459184531222913E+00
pair_coeff 7     55  2.246101777309229275E-01 3.202459184531222913E+00
pair_coeff 8     55  2.246101777309229275E-01 3.202459184531222913E+00
pair_coeff 9     55  2.246101777309229275E-01 3.202459184531222913E+00
pair_coeff 10     55  2.246101777309229275E-01 3.202459184531222913E+00
pair_coeff 11     55  2.246101777309229275E-01 3.202459184531222913E+00
pair_coeff 12      55  1.478995001499436579E-01 3.421967204782814687E+00
pair_coeff 13    55  2.348635714353968298E-02 4.659402998639063931E+00
pair_coeff 14    55  8.650032070345334279E-02 4.051158857442665351E+00
pair_coeff 15    55  1.799235509252720133E-01 3.648214441350505322E+00
pair_coeff 16    55  2.614906885166861650E-01 3.500724051252714020E+00
pair_coeff 17    55  3.156581412186418856E-01 3.482946463663709302E+00
pair_coeff 18   55  1.944027379041995962E-01 3.596016675800414841E+00
pair_coeff 19    55  1.990882790519060419E-01 3.497580972864009485E+00
pair_coeff 20     55  9.661611629313200666E-02 2.785794170892084587E+00
pair_coeff 21      55  0.000000000000000000E+00 0.000000000000000000E+00
pair_coeff 22    55  0.000000000000000000E+00 0.000000000000000000E+00
pair_coeff 23      55  3.876639902911756530E-01 3.288709231343011297E+00
pair_coeff 24   55  8.201877811694162634E-01 2.228209319371530661E+00
pair_coeff 25   55  8.201877811694162634E-01 2.228209319371530661E+00
pair_coeff 26     55  0.000000000000000000E+00 0.000000000000000000E+00
pair_coeff 27   55  6.043355625145997445E-01 2.344562657617333290E+00
pair_coeff 28   55  1.570137418991634226E-01 2.514229587944387223E+00
pair_coeff 29   55  1.999297577597621556E-01 3.032887402253098053E+00
pair_coeff 30     55  2.803031200614393148E-01 3.339102991308009027E+00
pair_coeff 31      55  1.896083717657784939E-01 3.100565748673854038E+00
pair_coeff 32     55  3.146505465202936724E-01 3.368340660276711862E+00
pair_coeff 33     55  4.798523843539687084E-01 3.455069189633579008E+00
pair_coeff 34   55  2.832176819438365079E-01 3.431537559306359508E+00
pair_coeff 35   55  2.082537742436552652E-01 3.223053226084240830E+00
pair_coeff 36    55  4.100541392375962879E-02 3.194635237397348781E+00
pair_coeff 37    55  2.312928247109353463E-01 3.659546234266159548E+00
pair_coeff 38   55  1.832119947291552531E-01 3.334308524577047184E+00
pair_coeff 39  55  3.143485531522378085E-01 3.353839251584496139E+00
pair_coeff 40   55  8.072054746493292909E-02 2.683428505195357694E+00
pair_coeff 41  55  3.198247837881820765E-01 3.411811460518701100E+00
pair_coeff 42  55  2.614906885166861650E-01 3.500724051252714020E+00
pair_coeff 43  55  3.677527078379324021E-01 2.932539165606559806E+00
pair_coeff 44   55  1.339797523846405214E-01 3.512838938705180603E+00
pair_coeff 45  55  2.987821701324951396E-01 3.357527805870319515E+00
pair_coeff 46   55  1.653764218541119713E-01 3.172037148255793415E+00
pair_coeff 47   55  1.788964013789737795E-01 3.315151346404604737E+00
pair_coeff 48  55  1.964825460064327234E-01 3.580150878787119240E+00
pair_coeff 49   55  2.588321155025055109E-01 3.108350117033022997E+00
pair_coeff 50  55  1.861466306346315491E-01 3.501654855827156965E+00
pair_coeff 51  55  2.632257047206049139E-01 3.111050730444828272E+00
pair_coeff 52  55  2.368019762580622356E-01 3.259929367013902457E+00
pair_coeff 53   55  2.614906885166861650E-01 3.500724051252714020E+00
pair_coeff 54      55  5.254452897086219210E-01 3.547897350510067938E+00
pair_coeff 55  55  3.299208273968177729E-01 3.269833376988799500E+00
pair_coeff 1      56      1.423703976828447626E-01 3.143928959384971744E+00
pair_coeff 2     56      1.653354984123153737E-01 3.066537799135407028E+00
pair_coeff 3     56      1.294276342571315797E-01 3.194269134171567437E+00
pair_coeff 4     56      1.294276342571315797E-01 3.194269134171567437E+00
pair_coeff 5     56      1.015029251390483361E-01 3.367009660356621747E+00
pair_coeff 6      56      1.006900148654086141E-01 3.351458328501519368E+00
pair_coeff 7     56      1.006900148654086141E-01 3.351458328501519368E+00
pair_coeff 8     56      1.006900148654086141E-01 3.351458328501519368E+00
pair_coeff 9     56      1.006900148654086141E-01 3.351458328501519368E+00
pair_coeff 10     56      1.006900148654086141E-01 3.351458328501519368E+00
pair_coeff 11     56      1.006900148654086141E-01 3.351458328501519368E+00
pair_coeff 12      56      6.630154972997068241E-02 3.581179283634555510E+00
pair_coeff 13    56      1.052864867392752299E-02 4.876188605638604123E+00
pair_coeff 14    56      3.877704325548127218E-02 4.239645007324696735E+00
pair_coeff 15    56      8.065754277175206377E-02 3.817953007077415251E+00
pair_coeff 16    56      1.172230999498745652E-01 3.663600408719620116E+00
pair_coeff 17    56      1.415057111515590771E-01 3.644995692608442361E+00
pair_coeff 18   56      8.714838644978782634E-02 3.763326663382849269E+00
pair_coeff 19    56      8.924885764206048899E-02 3.660311093966183371E+00
pair_coeff 20     56      4.331183156556572822E-02 2.915407359639444529E+00
pair_coeff 21      56      0.000000000000000000E+00 0.000000000000000000E+00
pair_coeff 22    56      0.000000000000000000E+00 0.000000000000000000E+00
pair_coeff 23      56      1.737850588051431666E-01 3.441721286142719993E+00
pair_coeff 24   56      3.676802214070164498E-01 2.331880049283297840E+00
pair_coeff 25   56      3.676802214070164498E-01 2.331880049283297840E+00
pair_coeff 26     56      0.000000000000000000E+00 0.000000000000000000E+00
pair_coeff 27   56      2.709162932331031781E-01 2.453646898458591963E+00
pair_coeff 28   56      7.038735361689542336E-02 2.631207833337182223E+00
pair_coeff 29   56      8.962608232733035307E-02 3.173996968575379718E+00
pair_coeff 30     56      1.256564845410435005E-01 3.494459690227617266E+00
pair_coeff 31      56      8.499913033581890653E-02 3.244824150032262100E+00
pair_coeff 32     56      1.410540186851716171E-01 3.525057684932574986E+00
pair_coeff 33     56      2.151119962679723108E-01 3.615821387226038297E+00
pair_coeff 34   56      1.269630472365963769E-01 3.591194913038851411E+00
pair_coeff 35   56      9.335763782481623640E-02 3.373010538257620983E+00
pair_coeff 36    56      1.838222906573640236E-02 3.343270360670348218E+00
pair_coeff 37    56      1.036857643481583074E-01 3.829812028396864854E+00
pair_coeff 38   56      8.213171219204309925E-02 3.489442153850004225E+00
pair_coeff 39  56      1.409186387258750672E-01 3.509881576780662371E+00
pair_coeff 40   56      3.618604110595938922E-02 2.808278980140014092E+00
pair_coeff 41  56      1.433735664130799115E-01 3.570551028367321855E+00
pair_coeff 42  56      1.172230999498745652E-01 3.663600408719620116E+00
pair_coeff 43  56      1.648590726968548470E-01 3.068979881992677683E+00
pair_coeff 44   56      6.006149585721085732E-02 3.676278959205930619E+00
pair_coeff 45  56      1.339404182663543053E-01 3.513741746503062924E+00
pair_coeff 46   56      7.413624147890124361E-02 3.319620862051439580E+00
pair_coeff 47   56      8.019708410451541203E-02 3.469393659665676477E+00
pair_coeff 48  56      8.808073916348332921E-02 3.746722686727856910E+00
pair_coeff 49   56      1.160312939550487005E-01 3.252970697627771912E+00
pair_coeff 50  56      8.344727382835046003E-02 3.664574520351796316E+00
pair_coeff 51  56      1.180008866429317071E-01 3.255796961067685569E+00
pair_coeff 52  56      1.061554500800334505E-01 3.411602396114444158E+00
pair_coeff 53   56      1.172230999498745652E-01 3.663600408719620116E+00
pair_coeff 54      56      2.355507420287134279E-01 3.712968515405449921E+00
pair_coeff 55  56      1.478995001499436579E-01 3.421967204782814687E+00
pair_coeff 56      56      6.630154972997068241E-02 3.581179283634555510E+00
pair_coeff 1      57     3.731714874568097806E-01 3.021498329079459921E+00
pair_coeff 2     57     4.333660288663451210E-01 2.947120929208018492E+00
pair_coeff 3     57     3.392468067789179420E-01 3.069878160802191225E+00
pair_coeff 4     57     3.392468067789179420E-01 3.069878160802191225E+00
pair_coeff 5     57     2.660524812168876263E-01 3.235891839220214727E+00
pair_coeff 6      57     2.639217367579247409E-01 3.220946106087509531E+00
pair_coeff 7     57     2.639217367579247409E-01 3.220946106087509531E+00
pair_coeff 8     57     2.639217367579247409E-01 3.220946106087509531E+00
pair_coeff 9     57     2.639217367579247409E-01 3.220946106087509531E+00
pair_coeff 10     57     2.639217367579247409E-01 3.220946106087509531E+00
pair_coeff 11     57     2.639217367579247409E-01 3.220946106087509531E+00
pair_coeff 12      57     1.737850588051431666E-01 3.441721286142719993E+00
pair_coeff 13    57     2.759696924716207450E-02 4.686300458613273712E+00
pair_coeff 14    57     1.016397168676915763E-01 4.074545090238809841E+00
pair_coeff 15    57     2.114139996840987690E-01 3.669274586167817986E+00
pair_coeff 16    57     3.072571214561132247E-01 3.520932774360979955E+00
pair_coeff 17    57     3.709050306349177539E-01 3.503052561617904459E+00
pair_coeff 18   57     2.284273523866607036E-01 3.616775497184223198E+00
pair_coeff 19    57     2.339329629063890137E-01 3.517771551839822930E+00
pair_coeff 20     57     1.135259918695059600E-01 2.801875799210098883E+00
pair_coeff 21      57     0.000000000000000000E+00 0.000000000000000000E+00
pair_coeff 22    57     0.000000000000000000E+00 0.000000000000000000E+00
pair_coeff 23      57     4.555134350088204109E-01 3.307694050845144673E+00
pair_coeff 24   57     9.637380899683938296E-01 2.241072162744267793E+00
pair_coeff 25   57     9.637380899683938296E-01 2.241072162744267793E+00
pair_coeff 26     57     0.000000000000000000E+00 0.000000000000000000E+00
pair_coeff 27   57     7.101071414248384395E-01 2.358097177009347067E+00
pair_coeff 28   57     1.844944867392919463E-01 2.528743548150760745E+00
pair_coeff 29   57     2.349217182881164212E-01 3.050395432258705242E+00
pair_coeff 30     57     3.293621287006147091E-01 3.358378720212484847E+00
pair_coeff 31      57     2.227938701879095817E-01 3.118464467275081642E+00
pair_coeff 32     57     3.697210854307304562E-01 3.387785170252723521E+00
pair_coeff 33     57     5.638367590708479593E-01 3.475014359704387434E+00
pair_coeff 34   57     3.327868009112045500E-01 3.451346887707100741E+00
pair_coeff 35   57     2.447026147257768958E-01 3.241659031413521852E+00
pair_coeff 36    57     4.818223363057468761E-02 3.213076993445320717E+00
pair_coeff 37    57     2.717739891131936147E-01 3.680671794426697563E+00
pair_coeff 38   57     2.152779911056781903E-01 3.353556576335538608E+00
pair_coeff 39  57     3.693662367992399664E-01 3.373200048891741964E+00
pair_coeff 40   57     9.484836036467202136E-02 2.698919204504523606E+00
pair_coeff 41  57     3.758009242872520916E-01 3.431506915542800851E+00
pair_coeff 42  57     3.072571214561132247E-01 3.520932774360979955E+00
pair_coeff 43  57     4.321172545720066149E-01 2.949467912669808012E+00
pair_coeff 44   57     1.574290590790217992E-01 3.533117597747393646E+00
pair_coeff 45  57     3.510754056218069463E-01 3.376909896193278637E+00
pair_coeff 46   57     1.943208135778947410E-01 3.190348451711801925E+00
pair_coeff 47   57     2.102070771175983122E-01 3.334288809009665400E+00
pair_coeff 48  57     2.308711711486143847E-01 3.600818111261308019E+00
pair_coeff 49   57     3.041332416110918979E-01 3.126293772665116322E+00
pair_coeff 50  57     2.187262507204020268E-01 3.521868952215817750E+00
pair_coeff 51  57     3.092958024031092212E-01 3.129009975979999414E+00
pair_coeff 52  57     2.782473593721414562E-01 3.278748048225554435E+00
pair_coeff 53   57     3.072571214561132247E-01 3.520932774360979955E+00
pair_coeff 54      57     6.174093927181751873E-01 3.568378392181247971E+00
pair_coeff 55  57     3.876639902911756530E-01 3.288709231343011297E+00
pair_coeff 56      57     1.737850588051431666E-01 3.441721286142719993E+00
pair_coeff 57     57     4.555134350088204109E-01 3.307694050845144673E+00
pair_coeff 1      58   0.000000000000000000E+00 0.000000000000000000E+00
pair_coeff 2     58   0.000000000000000000E+00 0.000000000000000000E+00
pair_coeff 3     58   0.000000000000000000E+00 0.000000000000000000E+00
pair_coeff 4     58   0.000000000000000000E+00 0.000000000000000000E+00
pair_coeff 5     58   0.000000000000000000E+00 0.000000000000000000E+00
pair_coeff 6      58   0.000000000000000000E+00 0.000000000000000000E+00
pair_coeff 7     58   0.000000000000000000E+00 0.000000000000000000E+00
pair_coeff 8     58   0.000000000000000000E+00 0.000000000000000000E+00
pair_coeff 9     58   0.000000000000000000E+00 0.000000000000000000E+00
pair_coeff 10     58   0.000000000000000000E+00 0.000000000000000000E+00
pair_coeff 11     58   0.000000000000000000E+00 0.000000000000000000E+00
pair_coeff 12      58   0.000000000000000000E+00 0.000000000000000000E+00
pair_coeff 13    58   0.000000000000000000E+00 0.000000000000000000E+00
pair_coeff 14    58   0.000000000000000000E+00 0.000000000000000000E+00
pair_coeff 15    58   0.000000000000000000E+00 0.000000000000000000E+00
pair_coeff 16    58   0.000000000000000000E+00 0.000000000000000000E+00
pair_coeff 17    58   0.000000000000000000E+00 0.000000000000000000E+00
pair_coeff 18   58   0.000000000000000000E+00 0.000000000000000000E+00
pair_coeff 19    58   0.000000000000000000E+00 0.000000000000000000E+00
pair_coeff 20     58   0.000000000000000000E+00 0.000000000000000000E+00
pair_coeff 21      58   0.000000000000000000E+00 0.000000000000000000E+00
pair_coeff 22    58   0.000000000000000000E+00 0.000000000000000000E+00
pair_coeff 23      58   0.000000000000000000E+00 0.000000000000000000E+00
pair_coeff 24   58   0.000000000000000000E+00 0.000000000000000000E+00
pair_coeff 25   58   0.000000000000000000E+00 0.000000000000000000E+00
pair_coeff 26     58   0.000000000000000000E+00 0.000000000000000000E+00
pair_coeff 27   58   0.000000000000000000E+00 0.000000000000000000E+00
pair_coeff 28   58   0.000000000000000000E+00 0.000000000000000000E+00
pair_coeff 29   58   0.000000000000000000E+00 0.000000000000000000E+00
pair_coeff 30     58   0.000000000000000000E+00 0.000000000000000000E+00
pair_coeff 31      58   0.000000000000000000E+00 0.000000000000000000E+00
pair_coeff 32     58   0.000000000000000000E+00 0.000000000000000000E+00
pair_coeff 33     58   0.000000000000000000E+00 0.000000000000000000E+00
pair_coeff 34   58   0.000000000000000000E+00 0.000000000000000000E+00
pair_coeff 35   58   0.000000000000000000E+00 0.000000000000000000E+00
pair_coeff 36    58   0.000000000000000000E+00 0.000000000000000000E+00
pair_coeff 37    58   0.000000000000000000E+00 0.000000000000000000E+00
pair_coeff 38   58   0.000000000000000000E+00 0.000000000000000000E+00
pair_coeff 39  58   0.000000000000000000E+00 0.000000000000000000E+00
pair_coeff 40   58   0.000000000000000000E+00 0.000000000000000000E+00
pair_coeff 41  58   0.000000000000000000E+00 0.000000000000000000E+00
pair_coeff 42  58   0.000000000000000000E+00 0.000000000000000000E+00
pair_coeff 43  58   0.000000000000000000E+00 0.000000000000000000E+00
pair_coeff 44   58   0.000000000000000000E+00 0.000000000000000000E+00
pair_coeff 45  58   0.000000000000000000E+00 0.000000000000000000E+00
pair_coeff 46   58   0.000000000000000000E+00 0.000000000000000000E+00
pair_coeff 47   58   0.000000000000000000E+00 0.000000000000000000E+00
pair_coeff 48  58   0.000000000000000000E+00 0.000000000000000000E+00
pair_coeff 49   58   0.000000000000000000E+00 0.000000000000000000E+00
pair_coeff 50  58   0.000000000000000000E+00 0.000000000000000000E+00
pair_coeff 51  58   0.000000000000000000E+00 0.000000000000000000E+00
pair_coeff 52  58   0.000000000000000000E+00 0.000000000000000000E+00
pair_coeff 53   58   0.000000000000000000E+00 0.000000000000000000E+00
pair_coeff 54      58   0.000000000000000000E+00 0.000000000000000000E+00
pair_coeff 55  58   0.000000000000000000E+00 0.000000000000000000E+00
pair_coeff 56      58   0.000000000000000000E+00 0.000000000000000000E+00
pair_coeff 57     58   0.000000000000000000E+00 0.000000000000000000E+00
pair_coeff 58   58   0.000000000000000000E+00 0.000000000000000000E+00
pair_coeff 1      59  3.175870057215742226E-01 3.004156156701421221E+00
pair_coeff 2     59  3.688154752311860185E-01 2.930205652875953248E+00
pair_coeff 3     59  2.887154597468856720E-01 3.052258307853131569E+00
pair_coeff 4     59  2.887154597468856720E-01 3.052258307853131569E+00
pair_coeff 5     59  2.264235444414708642E-01 3.217319135230157112E+00
pair_coeff 6      59  2.246101777309229275E-01 3.202459184531222913E+00
pair_coeff 7     59  2.246101777309229275E-01 3.202459184531222913E+00
pair_coeff 8     59  2.246101777309229275E-01 3.202459184531222913E+00
pair_coeff 9     59  2.246101777309229275E-01 3.202459184531222913E+00
pair_coeff 10     59  2.246101777309229275E-01 3.202459184531222913E+00
pair_coeff 11     59  2.246101777309229275E-01 3.202459184531222913E+00
pair_coeff 12      59  1.478995001499436579E-01 3.421967204782814687E+00
pair_coeff 13    59  2.348635714353968298E-02 4.659402998639063931E+00
pair_coeff 14    59  8.650032070345334279E-02 4.051158857442665351E+00
pair_coeff 15    59  1.799235509252720133E-01 3.648214441350505322E+00
pair_coeff 16    59  2.614906885166861650E-01 3.500724051252714020E+00
pair_coeff 17    59  3.156581412186418856E-01 3.482946463663709302E+00
pair_coeff 18   59  1.944027379041995962E-01 3.596016675800414841E+00
pair_coeff 19    59  1.990882790519060419E-01 3.497580972864009485E+00
pair_coeff 20     59  9.661611629313200666E-02 2.785794170892084587E+00
pair_coeff 21      59  0.000000000000000000E+00 0.000000000000000000E+00
pair_coeff 22    59  0.000000000000000000E+00 0.000000000000000000E+00
pair_coeff 23      59  3.876639902911756530E-01 3.288709231343011297E+00
pair_coeff 24   59  8.201877811694162634E-01 2.228209319371530661E+00
pair_coeff 25   59  8.201877811694162634E-01 2.228209319371530661E+00
pair_coeff 26     59  0.000000000000000000E+00 0.000000000000000000E+00
pair_coeff 27   59  6.043355625145997445E-01 2.344562657617333290E+00
pair_coeff 28   59  1.570137418991634226E-01 2.514229587944387223E+00
pair_coeff 29   59  1.999297577597621556E-01 3.032887402253098053E+00
pair_coeff 30     59  2.803031200614393148E-01 3.339102991308009027E+00
pair_coeff 31      59  1.896083717657784939E-01 3.100565748673854038E+00
pair_coeff 32     59  3.146505465202936724E-01 3.368340660276711862E+00
pair_coeff 33     59  4.798523843539687084E-01 3.455069189633579008E+00
pair_coeff 34   59  2.832176819438365079E-01 3.431537559306359508E+00
pair_coeff 35   59  2.082537742436552652E-01 3.223053226084240830E+00
pair_coeff 36    59  4.100541392375962879E-02 3.194635237397348781E+00
pair_coeff 37    59  2.312928247109353463E-01 3.659546234266159548E+00
pair_coeff 38   59  1.832119947291552531E-01 3.334308524577047184E+00
pair_coeff 39  59  3.143485531522378085E-01 3.353839251584496139E+00
pair_coeff 40   59  8.072054746493292909E-02 2.683428505195357694E+00
pair_coeff 41  59  3.198247837881820765E-01 3.411811460518701100E+00
pair_coeff 42  59  2.614906885166861650E-01 3.500724051252714020E+00
pair_coeff 43  59  3.677527078379324021E-01 2.932539165606559806E+00
pair_coeff 44   59  1.339797523846405214E-01 3.512838938705180603E+00
pair_coeff 45  59  2.987821701324951396E-01 3.357527805870319515E+00
pair_coeff 46   59  1.653764218541119713E-01 3.172037148255793415E+00
pair_coeff 47   59  1.788964013789737795E-01 3.315151346404604737E+00
pair_coeff 48  59  1.964825460064327234E-01 3.580150878787119240E+00
pair_coeff 49   59  2.588321155025055109E-01 3.108350117033022997E+00
pair_coeff 50  59  1.861466306346315491E-01 3.501654855827156965E+00
pair_coeff 51  59  2.632257047206049139E-01 3.111050730444828272E+00
pair_coeff 52  59  2.368019762580622356E-01 3.259929367013902457E+00
pair_coeff 53   59  2.614906885166861650E-01 3.500724051252714020E+00
pair_coeff 54      59  5.254452897086219210E-01 3.547897350510067938E+00
pair_coeff 55  59  3.299208273968177729E-01 3.269833376988799500E+00
pair_coeff 56      59  1.478995001499436579E-01 3.421967204782814687E+00
pair_coeff 57     59  3.876639902911756530E-01 3.288709231343011297E+00
pair_coeff 58   59  0.000000000000000000E+00 0.000000000000000000E+00
pair_coeff 59  59  3.299208273968177729E-01 3.269833376988799500E+00
pair_coeff 1      60  4.213927930353735807E-01 3.280869740545562685E+00
pair_coeff 2     60  4.893656869531686771E-01 3.200107637098358104E+00
pair_coeff 3     60  3.830843573048849926E-01 3.333402593012885884E+00
pair_coeff 4     60  3.830843573048849926E-01 3.333402593012885884E+00
pair_coeff 5     60  3.004318441315838584E-01 3.513667214970925379E+00
pair_coeff 6      60  2.980257643827635139E-01 3.497438510452560934E+00
pair_coeff 7     60  2.980257643827635139E-01 3.497438510452560934E+00
pair_coeff 8     60  2.980257643827635139E-01 3.497438510452560934E+00
pair_coeff 9     60  2.980257643827635139E-01 3.497438510452560934E+00
pair_coeff 10     60  2.980257643827635139E-01 3.497438510452560934E+00
pair_coeff 11     60  2.980257643827635139E-01 3.497438510452560934E+00
pair_coeff 12      60  1.962416041396830291E-01 3.737165469999586431E+00
pair_coeff 13    60  3.116305597093314839E-02 5.088581787981105720E+00
pair_coeff 14    60  1.147736244965881502E-01 4.424312125013074137E+00
pair_coeff 15    60  2.387329654277859925E-01 3.984252396783054539E+00
pair_coeff 16    60  3.469609574750426306E-01 3.823176629528523662E+00
pair_coeff 17    60  4.188334641408217873E-01 3.803761543847788751E+00
pair_coeff 18   60  2.579447874860245626E-01 3.927246681838655107E+00
pair_coeff 19    60  2.641618342654674101E-01 3.819744041394028677E+00
pair_coeff 20     60  1.281958466924380258E-01 3.042394376963291069E+00
pair_coeff 21      60  0.000000000000000000E+00 0.000000000000000000E+00
pair_coeff 22    60  0.000000000000000000E+00 0.000000000000000000E+00
pair_coeff 23      60  5.143749860195843127E-01 3.591633070903154312E+00
pair_coeff 24   60  1.088272547975307258E+00 2.433450243663300760E+00
pair_coeff 25   60  1.088272547975307258E+00 2.433450243663300760E+00
pair_coeff 26     60  0.000000000000000000E+00 0.000000000000000000E+00
pair_coeff 27   60  8.018673498307147263E-01 2.560520917340021185E+00
pair_coeff 28   60  2.083349068186673148E-01 2.745815911556464428E+00
pair_coeff 29   60  2.652783568454061824E-01 3.312247428395911797E+00
pair_coeff 30     60  3.719223788481205717E-01 3.646668612851485136E+00
pair_coeff 31      60  2.515833454197372587E-01 3.386159644432585214E+00
pair_coeff 32     60  4.174965292645979598E-01 3.678599370907961408E+00
pair_coeff 33     60  6.366958749718966137E-01 3.773316487051947554E+00
pair_coeff 34   60  3.757895879907217074E-01 3.747617352300228966E+00
pair_coeff 35   60  2.763231429740154454E-01 3.519929474384682955E+00
pair_coeff 36    60  5.440835296030136631E-02 3.488893897568208224E+00
pair_coeff 37    60  3.068926865963431116E-01 3.996627964011863376E+00
pair_coeff 38   60  2.430962627110289931E-01 3.641432526576616979E+00
pair_coeff 39  60  4.170958270111979060E-01 3.662762233791288402E+00
pair_coeff 40   60  1.071046873416893891E-01 2.930599783893948374E+00
pair_coeff 41  60  4.243620062988024966E-01 3.726074277561229664E+00
pair_coeff 42  60  3.469609574750426306E-01 3.823176629528523662E+00
pair_coeff 43  60  4.879555457568295340E-01 3.202656090277113510E+00
pair_coeff 44   60  1.777720783609382238E-01 3.836407422330105899E+00
pair_coeff 45  60  3.964414504152660723E-01 3.666790541745827525E+00
pair_coeff 46   60  2.194309938750947930E-01 3.464214292717012533E+00
pair_coeff 47   60  2.373700840491974606E-01 3.620510775874676401E+00
pair_coeff 48  60  2.607043970713927572E-01 3.909919482247368627E+00
pair_coeff 49   60  3.434334091567836644E-01 3.394661032931277411E+00
pair_coeff 50  60  2.469901072275602905E-01 3.824193170747873793E+00
pair_coeff 51  60  3.492630772436706166E-01 3.397610400527878660E+00
pair_coeff 52  60  3.142025472514550222E-01 3.560202285987479787E+00
pair_coeff 53   60  3.469609574750426306E-01 3.823176629528523662E+00
pair_coeff 54      60  6.971911766809288924E-01 3.874695073318440208E+00
pair_coeff 55  60  4.377580204247071283E-01 3.571018556827535662E+00
pair_coeff 56      60  1.962416041396830291E-01 3.737165469999586431E+00
pair_coeff 57     60  5.143749860195843127E-01 3.591633070903154312E+00
pair_coeff 58   60  0.000000000000000000E+00 0.000000000000000000E+00
pair_coeff 59  60  4.377580204247071283E-01 3.571018556827535662E+00
pair_coeff 60  60  5.808426402121911192E-01 3.899945979801004992E+00
pair_coeff 1      61  1.910810716445957014E-01 3.063480889575645350E+00
pair_coeff 2     61  2.219034625996930687E-01 2.988070044257751245E+00
pair_coeff 3     61  1.557302947388717884E-01 3.169732425659423480E+00
pair_coeff 4     61  1.737100651314506250E-01 3.112532940505829959E+00
pair_coeff 5     61  1.362311830710550009E-01 3.280853315316931695E+00
pair_coeff 6      61  1.351401432989809970E-01 3.265699916954241999E+00
pair_coeff 7     61  9.147486144193246738E-02 3.485165270484214428E+00
pair_coeff 8     61  6.708554049685398757E-02 3.670023545392655517E+00
pair_coeff 9     61  1.117970875851971996E-01 3.370558915160181357E+00
pair_coeff 10     61  9.581863977856053260E-02 3.458321283688134518E+00
pair_coeff 11     61  1.037391321796109073E-01 3.412845037342698173E+00
pair_coeff 12      61  8.898599273651414121E-02 3.489542683465986617E+00
pair_coeff 13    61  1.413092541937840431E-02 4.751414806224702581E+00
pair_coeff 14    61  5.204423883799429856E-02 4.131159331623315722E+00
pair_coeff 15    61  1.082537519026915002E-01 3.720257749325097230E+00
pair_coeff 16    61  1.573298657900891462E-01 3.569854784934338721E+00
pair_coeff 17    61  1.899205408620464608E-01 3.551726133492507209E+00
pair_coeff 18   61  1.169653758502452456E-01 3.667029205634201983E+00
pair_coeff 19    61  1.197845032314313607E-01 3.566649638438623260E+00
pair_coeff 20     61  5.813056172586479609E-02 2.840806788882025202E+00
pair_coeff 21      61  0.000000000000000000E+00 0.000000000000000000E+00
pair_coeff 22    61  0.000000000000000000E+00 0.000000000000000000E+00
pair_coeff 23      61  2.332439595082145267E-01 3.353653191135248957E+00
pair_coeff 24   61  1.570138934856017687E-01 2.750027377697141340E+00
pair_coeff 25   61  8.635572240102759589E-02 3.038166082187003791E+00
pair_coeff 26     61  0.000000000000000000E+00 0.000000000000000000E+00
pair_coeff 27   61  3.636077195786372451E-01 2.390862032921029723E+00
pair_coeff 28   61  9.446971546223430216E-02 2.563879469944211564E+00
pair_coeff 29   61  1.202907917456541853E-01 3.092779506921127464E+00
pair_coeff 30     61  1.686486525006622439E-01 3.405042104545177306E+00
pair_coeff 31      61  1.140807722516042760E-01 3.161794335073641271E+00
pair_coeff 32     61  1.893143061255012083E-01 3.434857145930944711E+00
pair_coeff 33     61  2.887105145415023166E-01 3.523298351516439553E+00
pair_coeff 34   61  1.704022431634715784E-01 3.499302029072553388E+00
pair_coeff 35   61  1.252990633735053816E-01 3.286700640433966480E+00
pair_coeff 36    61  2.467153345263567096E-02 3.257721466009803724E+00
pair_coeff 37    61  1.391608599006002867E-01 3.731813317421747822E+00
pair_coeff 38   61  1.102322943328560290E-01 3.400152958828419614E+00
pair_coeff 39  61  1.891326072040779016E-01 3.420069369902248191E+00
pair_coeff 40   61  4.856675001010610920E-02 2.736419651778293272E+00
pair_coeff 41  61  1.924274649899363476E-01 3.479186388103933769E+00
pair_coeff 42  61  1.573298657900891462E-01 3.569854784934338721E+00
pair_coeff 43  61  2.212640323687539434E-01 2.990449638154641487E+00
pair_coeff 44   61  8.061096393464804721E-02 3.582208911768658854E+00
pair_coeff 45  61  1.797668551567465633E-01 3.423830764109261793E+00
pair_coeff 46   61  9.950124955784923897E-02 3.234677119905607690E+00
pair_coeff 47   61  1.076357516932685832E-01 3.380617473265008499E+00
pair_coeff 48  61  1.182167241542694813E-01 3.650850097953766138E+00
pair_coeff 49   61  1.557302947388717884E-01 3.169732425659423480E+00
pair_coeff 50  61  1.119979628381875536E-01 3.570803970621432288E+00
pair_coeff 51  61  1.583737647834132234E-01 3.172486369577665499E+00
pair_coeff 52  61  1.424755250553842723E-01 3.324304994910451949E+00
pair_coeff 53   61  1.573298657900891462E-01 3.569854784934338721E+00
pair_coeff 54      61  3.161421822659541414E-01 3.617959641418169170E+00
pair_coeff 55  61  1.985019037967935274E-01 3.334404584847074471E+00
pair_coeff 56      61  8.898599273651414121E-02 3.489542683465986617E+00
pair_coeff 57     61  2.332439595082145267E-01 3.353653191135248957E+00
pair_coeff 58   61  0.000000000000000000E+00 0.000000000000000000E+00
pair_coeff 59  61  1.985019037967935274E-01 3.334404584847074471E+00
pair_coeff 60  61  2.633837976894515820E-01 3.641537434982425658E+00
pair_coeff 61  61  1.194317016050606556E-01 3.400250916053718875E+00
pair_coeff 1      62   3.022272329752703768E-01 3.080610167712853453E+00
pair_coeff 2     62   1.855061234448970586E-01 3.341688535145806327E+00
pair_coeff 3     62   2.783347785346825254E-01 3.123185389796383937E+00
pair_coeff 4     62   2.783347785346825254E-01 3.123185389796383937E+00
pair_coeff 5     62   2.434842638240715673E-01 3.232674486185113771E+00
pair_coeff 6      62   1.146462465840507594E-01 3.643241170326683598E+00
pair_coeff 7     62   9.900340316124917051E-02 3.733414477700354173E+00
pair_coeff 8     62   7.260679827666578767E-02 3.931440254472196472E+00
pair_coeff 9     62   1.209981842003316904E-01 3.610644682584218224E+00
pair_coeff 10     62   1.037046820823140647E-01 3.704658386908206591E+00
pair_coeff 11     62   1.122770449157311640E-01 3.655942855987651008E+00
pair_coeff 12      62   9.630969619111764968E-02 3.738103694920388520E+00
pair_coeff 13    62   1.529392539418433263E-02 5.089859289414571109E+00
pair_coeff 14    62   5.632757107994194185E-02 4.425422859853802571E+00
pair_coeff 15    62   1.171632257693376034E-01 3.985252653506883291E+00
pair_coeff 16    62   1.702783900034554321E-01 3.824136447770248637E+00
pair_coeff 17    62   2.055513348604910695E-01 3.804716487882746634E+00
pair_coeff 18   62   1.265918316646999775E-01 3.928232627132385968E+00
pair_coeff 19    62   1.296429781795231384E-01 3.820702997875749851E+00
pair_coeff 20     62   6.291480902858739843E-02 3.043158177829559552E+00
pair_coeff 21      62   0.000000000000000000E+00 0.000000000000000000E+00
pair_coeff 22    62   0.000000000000000000E+00 0.000000000000000000E+00
pair_coeff 23      62   2.524403469337466177E-01 3.592534759544063760E+00
pair_coeff 24   62   5.340926503741362241E-01 2.434061167552131533E+00
pair_coeff 25   62   5.340926503741362241E-01 2.434061167552131533E+00
pair_coeff 26     62   0.000000000000000000E+00 0.000000000000000000E+00
pair_coeff 27   62   3.935332733664513305E-01 2.561163742645501173E+00
pair_coeff 28   62   1.022447389261494227E-01 2.746505255642734511E+00
pair_coeff 29   62   1.301909351274692650E-01 3.313078976558852418E+00
pair_coeff 30     62   1.825287327352057842E-01 3.647584118305537970E+00
pair_coeff 31      62   8.776721851084816339E-02 3.585264437649749780E+00
pair_coeff 32     62   2.048952059406277393E-01 3.679522892660245681E+00
pair_coeff 33     62   3.124718968411722697E-01 3.774263787777763390E+00
pair_coeff 34   62   1.844266469887313464E-01 3.748558201192733641E+00
pair_coeff 35   62   1.356113963044227322E-01 3.520813161654846368E+00
pair_coeff 36    62   2.670204397705544519E-02 3.489769793277673227E+00
pair_coeff 37    62   1.506140430259195195E-01 3.997631327653401900E+00
pair_coeff 38   62   1.193046057156692125E-01 3.642346717497859210E+00
pair_coeff 39  62   2.046985528789223296E-01 3.663681779589916143E+00
pair_coeff 40   62   5.256387881532230411E-02 2.931335518442557131E+00
pair_coeff 41  62   2.082645832460674196E-01 3.727009718009888228E+00
pair_coeff 42  62   1.702783900034554321E-01 3.824136447770248637E+00
pair_coeff 43  62   1.845251754501273656E-01 3.345696810660210740E+00
pair_coeff 44   62   8.724538781296764522E-02 3.837370562196102064E+00
pair_coeff 45  62   1.945619829925733513E-01 3.667711098861439201E+00
pair_coeff 46   62   1.076903771128106951E-01 3.465083992548747993E+00
pair_coeff 47   62   1.164943630575195482E-01 3.621419714337055673E+00
pair_coeff 48  62   1.279461681314143506E-01 3.910901077503457834E+00
pair_coeff 49   62   1.685471714460022030E-01 3.395513271239786857E+00
pair_coeff 50  62   1.212155918393642284E-01 3.825153244194864577E+00
pair_coeff 51  62   1.714082037169344097E-01 3.398463379282643082E+00
pair_coeff 52  62   1.542015109432330056E-01 3.561096083849689897E+00
pair_coeff 53   62   1.702783900034554321E-01 3.824136447770248637E+00
pair_coeff 54      62   3.421612389871924731E-01 3.875667825396847732E+00
pair_coeff 55  62   2.148389590329646270E-01 3.571915070142120285E+00
pair_coeff 56      62   9.630969619111764968E-02 3.738103694920388520E+00
pair_coeff 57     62   2.524403469337466177E-01 3.592534759544063760E+00
pair_coeff 58   62   0.000000000000000000E+00 0.000000000000000000E+00
pair_coeff 59  62   2.148389590329646270E-01 3.571915070142120285E+00
pair_coeff 60  62   2.850607467204795409E-01 3.900925071183873882E+00
pair_coeff 61  62   2.134587638969343837E-01 3.350318751416838214E+00
pair_coeff 62   62   1.398995591837953467E-01 3.901904408370130639E+00
pair_coeff 1      63   1.498564773336243661E-01 3.117191049441867978E+00
pair_coeff 2     63   1.740291224406275705E-01 3.040458071326784140E+00
pair_coeff 3     63   1.362331612123857949E-01 3.167103100349917710E+00
pair_coeff 4     63   1.362331612123857949E-01 3.167103100349917710E+00
pair_coeff 5     63   1.068401230028258736E-01 3.338374534614535705E+00
pair_coeff 6      63   1.059844685129975872E-01 3.322955460872134559E+00
pair_coeff 7     63   1.059844685129975872E-01 3.322955460872134559E+00
pair_coeff 8     63   1.059844685129975872E-01 3.322955460872134559E+00
pair_coeff 9     63   1.059844685129975872E-01 3.322955460872134559E+00
pair_coeff 10     63   1.059844685129975872E-01 3.322955460872134559E+00
pair_coeff 11     63   1.059844685129975872E-01 3.322955460872134559E+00
pair_coeff 12      63   6.978779891046651973E-02 3.550722727391420364E+00
pair_coeff 13    63   1.108226307601466523E-02 4.834718491813685404E+00
pair_coeff 14    63   4.081600668577894941E-02 4.203588452656632057E+00
pair_coeff 15    63   8.489865468443062724E-02 3.785482781131149110E+00
pair_coeff 16    63   1.233868915625870588E-01 3.632442892420324476E+00
pair_coeff 17    63   1.489463241017357775E-01 3.613996402283818909E+00
pair_coeff 18   63   9.173079805373214601E-02 3.731321013537728604E+00
pair_coeff 19    63   9.394171562323941349E-02 3.629181552027246127E+00
pair_coeff 20     63   4.558924194158552046E-02 2.890612938252534736E+00
pair_coeff 21      63   0.000000000000000000E+00 0.000000000000000000E+00
pair_coeff 22    63   0.000000000000000000E+00 0.000000000000000000E+00
pair_coeff 23      63   1.829229752084453597E-01 3.412450766679025804E+00
pair_coeff 24   63   3.870134779566036798E-01 2.312048303858599940E+00
pair_coeff 25   63   3.870134779566036798E-01 2.312048303858599940E+00
pair_coeff 26     63   0.000000000000000000E+00 0.000000000000000000E+00
pair_coeff 27   63   2.851615365059002039E-01 2.432779572685431102E+00
pair_coeff 28   63   7.408844137221298753E-02 2.608830419916517318E+00
pair_coeff 29   63   9.433877542933588600E-02 3.147003341746720917E+00
pair_coeff 30     63   1.322637179773560601E-01 3.464740650865038685E+00
pair_coeff 31      63   8.946853036768810663E-02 3.217228165191134082E+00
pair_coeff 32     63   1.484708808708911920E-01 3.495078421360915844E+00
pair_coeff 33     63   2.264229539116222045E-01 3.585070213178863874E+00
pair_coeff 34   63   1.336389819799702339E-01 3.560653177709135697E+00
pair_coeff 35   63   9.826654251385204264E-02 3.344324377350627486E+00
pair_coeff 36    63   1.934879819235730755E-02 3.314837128566866298E+00
pair_coeff 37    63   1.091377396407426786E-01 3.797240946022814256E+00
pair_coeff 38   63   8.645033846078624407E-02 3.459765786709836810E+00
pair_coeff 39  63   1.483283824011816243E-01 3.480031380188026713E+00
pair_coeff 40   63   3.808876520011451883E-02 2.784395644531571179E+00
pair_coeff 41  63   1.509123943959561898E-01 3.540184861358758983E+00
pair_coeff 42  63   1.233868915625870588E-01 3.632442892420324476E+00
pair_coeff 43  63   1.735276454440603799E-01 3.042879385206016973E+00
pair_coeff 44   63   6.321963230446354942E-02 3.645013616697617920E+00
pair_coeff 45  63   1.409832351434577025E-01 3.483858720647509788E+00
pair_coeff 46   63   7.803445218669756434E-02 3.291388759862927227E+00
pair_coeff 47   63   8.441398431086369336E-02 3.439887797278931458E+00
pair_coeff 48  63   9.271217547193744135E-02 3.714858247335717678E+00
pair_coeff 49   63   1.221324183648120482E-01 3.225305429523958711E+00
pair_coeff 50  63   8.783507458389137879E-02 3.633408719606690873E+00
pair_coeff 51  63   1.242055756137348393E-01 3.228107656677332127E+00
pair_coeff 52  63   1.117372856834838307E-01 3.382588026258317004E+00
pair_coeff 53   63   1.233868915625870588E-01 3.632442892420324476E+00
pair_coeff 54      63   2.479364039733781833E-01 3.681391142293968244E+00
pair_coeff 55  63   1.556763094898980793E-01 3.392864686204393188E+00
pair_coeff 56      63   6.978779891046651973E-02 3.550722727391420364E+00
pair_coeff 57     63   1.829229752084453597E-01 3.412450766679025804E+00
pair_coeff 58   63   0.000000000000000000E+00 0.000000000000000000E+00
pair_coeff 59  63   1.556763094898980793E-01 3.392864686204393188E+00
pair_coeff 60  63   2.065603242057677535E-01 3.705382311070042789E+00
pair_coeff 61  63   9.366502883019156567E-02 3.459865461359993954E+00
pair_coeff 62   63   1.013738251713232619E-01 3.706312556747750619E+00
pair_coeff 63   63   7.345736105118740034E-02 3.520525192477496734E+00
pair_coeff 1      64   2.736888169216060152E-01 2.785635403427779710E+00
pair_coeff 2     64   3.178362756028405567E-01 2.717064020712530947E+00
pair_coeff 3     64   2.488080153832781527E-01 2.830238629172332043E+00
pair_coeff 4     64   2.488080153832781527E-01 2.830238629172332043E+00
pair_coeff 5     64   1.951263461191829751E-01 2.983293017984591344E+00
pair_coeff 6      64   1.935636304516219763E-01 2.969513972355486864E+00
pair_coeff 7     64   1.935636304516219763E-01 2.969513972355486864E+00
pair_coeff 8     64   1.935636304516219763E-01 2.969513972355486864E+00
pair_coeff 9     64   1.935636304516219763E-01 2.969513972355486864E+00
pair_coeff 10     64   1.935636304516219763E-01 2.969513972355486864E+00
pair_coeff 11     64   1.935636304516219763E-01 2.969513972355486864E+00
pair_coeff 12      64   1.274562198392401313E-01 3.173055093606844679E+00
pair_coeff 13    64   2.023997576918816488E-02 4.320480452686580541E+00
pair_coeff 14    64   7.454388879317874750E-02 3.756479673344732539E+00
pair_coeff 15    64   1.550537739325613118E-01 3.382845224091495684E+00
pair_coeff 16    64   2.253463645766736745E-01 3.246083208107312768E+00
pair_coeff 17    64   2.720265680439789557E-01 3.229598752975045173E+00
pair_coeff 18   64   1.675315878319233176E-01 3.334444296805542329E+00
pair_coeff 19    64   1.715694741126911615E-01 3.243168755602641173E+00
pair_coeff 20     64   8.326143729888541012E-02 2.583156954670584149E+00
pair_coeff 21      64   0.000000000000000000E+00 0.000000000000000000E+00
pair_coeff 22    64   0.000000000000000000E+00 0.000000000000000000E+00
pair_coeff 23      64   3.340794709935869244E-01 3.049490235709929387E+00
pair_coeff 24   64   7.068180354917007469E-01 2.066130534673785490E+00
pair_coeff 25   64   7.068180354917007469E-01 2.066130534673785490E+00
pair_coeff 26     64   0.000000000000000000E+00 0.000000000000000000E+00
pair_coeff 27   64   5.208018028082631590E-01 2.174020391731148916E+00
pair_coeff 28   64   1.353106534166275132E-01 2.331345837965244083E+00
pair_coeff 29   64   1.722946401549686202E-01 2.812276753150826814E+00
pair_coeff 30     64   2.415584640648248682E-01 3.096218379836923162E+00
pair_coeff 31      64   1.633999188005277048E-01 2.875032211922354808E+00
pair_coeff 32     64   2.711582472501199992E-01 3.123329316001555611E+00
pair_coeff 33     64   4.135252041325190309E-01 3.203749257330099631E+00
pair_coeff 34   64   2.440701631553644779E-01 3.181929305529774155E+00
pair_coeff 35   64   1.794680766699055796E-01 2.988610014058173281E+00
pair_coeff 36    64   3.533747609942639034E-02 2.962259135058813886E+00
pair_coeff 37    64   1.993225743407424921E-01 3.393352748295836552E+00
pair_coeff 38   64   1.578876754398131910E-01 3.091772660117416471E+00
pair_coeff 39  64   2.708979966538037076E-01 3.109882732220449419E+00
pair_coeff 40   64   6.956301970462222539E-02 2.488237314150513413E+00
pair_coeff 41  64   2.756172800531233036E-01 3.163638072888010022E+00
pair_coeff 42  64   2.253463645766736745E-01 3.246083208107312768E+00
pair_coeff 43  64   3.169204083120440441E-01 2.719227794943182452E+00
pair_coeff 44   64   1.154605171527362945E-01 3.257316864959954650E+00
pair_coeff 45  64   2.574832634447348223E-01 3.113302982989749168E+00
pair_coeff 46   64   1.425174091778202701E-01 2.941304819144806793E+00
pair_coeff 47   64   1.541686012426736752E-01 3.074008965101800328E+00
pair_coeff 48  64   1.693239162605719161E-01 3.319732569598804695E+00
pair_coeff 49   64   2.230552705147563208E-01 2.882250349383768562E+00
pair_coeff 50  64   1.604166738389782576E-01 3.246946306442084040E+00
pair_coeff 51  64   2.268415596685240676E-01 2.884754521583377418E+00
pair_coeff 52  64   2.040702281868096157E-01 3.022803803713983939E+00
pair_coeff 53   64   2.253463645766736745E-01 3.246083208107312768E+00
pair_coeff 54      64   4.528160696330849611E-01 3.289825146160248348E+00
pair_coeff 55  64   2.843178067782592411E-01 3.031987401164613072E+00
pair_coeff 56      64   1.274562198392401313E-01 3.173055093606844679E+00
pair_coeff 57     64   3.340794709935869244E-01 3.049490235709929387E+00
pair_coeff 58   64   0.000000000000000000E+00 0.000000000000000000E+00
pair_coeff 59  64   2.843178067782592411E-01 3.031987401164613072E+00
pair_coeff 60  64   3.772492971989485633E-01 3.311264527979406402E+00
pair_coeff 61  64   1.710641500693499129E-01 3.091861733013461677E+00
pair_coeff 62   64   1.851430299952198100E-01 3.312095829382690759E+00
pair_coeff 63   64   1.341580864437666998E-01 3.146069477063536013E+00
pair_coeff 64   64   2.450182241873804789E-01 2.811442217672497801E+00
pair_coeff 1      65   3.029649478331380430E-01 3.149235865916097055E+00
pair_coeff 2     65   1.859589305005138193E-01 3.416130186772377453E+00
pair_coeff 3     65   2.790141736360602920E-01 3.192759521648344645E+00
pair_coeff 4     65   2.790141736360602920E-01 3.192759521648344645E+00
pair_coeff 5     65   2.440785913349041991E-01 3.304687669158851371E+00
pair_coeff 6      65   1.476955362938090210E-01 3.571891367671221396E+00
pair_coeff 7     65   1.476955362938090210E-01 3.571891367671221396E+00
pair_coeff 8     65   1.476955362938090210E-01 3.571891367671221396E+00
pair_coeff 9     65   1.476955362938090210E-01 3.571891367671221396E+00
pair_coeff 10     65   1.476955362938090210E-01 3.571891367671221396E+00
pair_coeff 11     65   1.476955362938090210E-01 3.571891367671221396E+00
pair_coeff 12      65   9.725336675705262279E-02 3.816721592661593387E+00
pair_coeff 13    65   1.544377974741017144E-02 5.196906624050063428E+00
pair_coeff 14    65   5.687948509255881524E-02 4.518496105074461866E+00
pair_coeff 15    65   1.183112253160199800E-01 4.069068462579280343E+00
pair_coeff 16    65   1.719468274611148095E-01 3.904563742659835412E+00
pair_coeff 17    65   2.075653869462910639E-01 3.884735352042429479E+00
pair_coeff 18   65   1.278322154490358076E-01 4.010849219979507829E+00
pair_coeff 19    65   1.309132579896203075E-01 3.901058082191544596E+00
pair_coeff 20     65   6.353126672484969706E-02 3.107160334527358625E+00
pair_coeff 21      65   0.000000000000000000E+00 0.000000000000000000E+00
pair_coeff 22    65   0.000000000000000000E+00 0.000000000000000000E+00
pair_coeff 23      65   2.549138312710149123E-01 3.668091125393774021E+00
pair_coeff 24   65   5.393258463406160885E-01 2.485253105385875294E+00
pair_coeff 25   65   5.393258463406160885E-01 2.485253105385875294E+00
pair_coeff 26     65   0.000000000000000000E+00 0.000000000000000000E+00
pair_coeff 27   65   3.973892274549682413E-01 2.615028837263234429E+00
pair_coeff 28   65   1.032465627763134441E-01 2.804268358797742167E+00
pair_coeff 29   65   1.314665839799746549E-01 3.382757970360330546E+00
pair_coeff 30     65   1.843172026331671987E-01 3.724298254300499433E+00
pair_coeff 31      65   1.246796135270904909E-01 3.458243616680580335E+00
pair_coeff 32     65   2.069028290834072914E-01 3.756908748730711789E+00
pair_coeff 33     65   3.155335878587179343E-01 3.853642186220550769E+00
pair_coeff 34   65   1.862337132055325029E-01 3.827395972798371737E+00
pair_coeff 35   65   1.369401564205784128E-01 3.594861115296422938E+00
pair_coeff 36    65   2.696367841209141095E-02 3.563164858567346549E+00
pair_coeff 37    65   1.520898034616910699E-01 4.081707478711374293E+00
pair_coeff 38   65   1.204735871292430399E-01 3.718950703139931591E+00
pair_coeff 39  65   2.067042491574984375E-01 3.740734473418478423E+00
pair_coeff 40   65   5.307891507056041597E-02 2.992985877780431903E+00
pair_coeff 41  65   2.103052205329510593E-01 3.805394292865085681E+00
pair_coeff 42  65   1.719468274611148095E-01 3.904563742659835412E+00
pair_coeff 43  65   2.418208914499519191E-01 3.270833671068669624E+00
pair_coeff 44   65   8.810024363484980636E-02 3.918076190256606139E+00
pair_coeff 45  65   1.964683581952911540E-01 3.744848535285795421E+00
pair_coeff 46   65   1.087455589183283500E-01 3.537959878619287846E+00
pair_coeff 47   65   1.176358088917642403E-01 3.697583573880764529E+00
pair_coeff 48  65   1.291998221004829195E-01 3.993153162004202006E+00
pair_coeff 49   65   1.701986459179967992E-01 3.466925981245660537E+00
pair_coeff 50  65   1.224032976537840489E-01 3.905601923830262834E+00
pair_coeff 51  65   1.730877114197359179E-01 3.469938134462050350E+00
pair_coeff 52  65   1.557124224386972067E-01 3.635991247444840813E+00
pair_coeff 53   65   1.719468274611148095E-01 3.904563742659835412E+00
pair_coeff 54      65   3.455138348607721954E-01 3.957178902039792057E+00
pair_coeff 55  65   2.169440139762717490E-01 3.647037773160310081E+00
pair_coeff 56      65   9.725336675705262279E-02 3.816721592661593387E+00
pair_coeff 57     65   2.549138312710149123E-01 3.668091125393774021E+00
pair_coeff 58   65   0.000000000000000000E+00 0.000000000000000000E+00
pair_coeff 59  65   2.169440139762717490E-01 3.647037773160310081E+00
pair_coeff 60  65   2.878538552736386591E-01 3.982967345388086056E+00
pair_coeff 61  65   2.139798013299897272E-01 3.424952655417128344E+00
pair_coeff 62   65   1.412703359737776110E-01 3.983967279496484881E+00
pair_coeff 63   65   1.023671155538469490E-01 3.784261839422624174E+00
pair_coeff 64   65   1.869571155422015130E-01 3.381754146132254668E+00
pair_coeff 65   65   1.426545440355874161E-01 4.067756055235738799E+00
pair_coeff 1      66   4.547358060207790653E-01 2.888292173693689513E+00
pair_coeff 2     66   2.791154051078111320E-01 3.133071799912078959E+00
pair_coeff 3     66   4.187868466206033369E-01 2.928209486837023423E+00
pair_coeff 4     66   4.187868466206033369E-01 2.928209486837023423E+00
pair_coeff 5     66   3.663502189178132196E-01 3.030863338829969500E+00
pair_coeff 6      66   1.833232912906428147E-01 3.381325076733848078E+00
pair_coeff 7     66   1.833232912906428147E-01 3.381325076733848078E+00
pair_coeff 8     66   1.833232912906428147E-01 3.381325076733848078E+00
pair_coeff 9     66   1.833232912906428147E-01 3.381325076733848078E+00
pair_coeff 10     66   1.833232912906428147E-01 3.381325076733848078E+00
pair_coeff 11     66   1.833232912906428147E-01 3.381325076733848078E+00
pair_coeff 12      66   1.207132438148451475E-01 3.613093205741105152E+00
pair_coeff 13    66   1.916919498251404980E-02 4.919643091161947979E+00
pair_coeff 14    66   7.060020008554598880E-02 4.277426891393306008E+00
pair_coeff 15    66   1.468507699407754774E-01 3.851976954281385979E+00
pair_coeff 16    66   2.134245836275632802E-01 3.696248832273197671E+00
pair_coeff 17    66   2.576352058285252822E-01 3.677478318972391413E+00
pair_coeff 18   66   1.586684544241984962E-01 3.796863804219543059E+00
pair_coeff 19    66   1.624927193500039502E-01 3.692930204568213970E+00
pair_coeff 20     66   7.885655320479272035E-02 2.941388210084320498E+00
pair_coeff 21      66   0.000000000000000000E+00 0.000000000000000000E+00
pair_coeff 22    66   0.000000000000000000E+00 0.000000000000000000E+00
pair_coeff 23      66   3.164052463383004721E-01 3.472392418844832296E+00
pair_coeff 24   66   6.694243557407878464E-01 2.352660756519802554E+00
pair_coeff 25   66   6.694243557407878464E-01 2.352660756519802554E+00
pair_coeff 26     66   0.000000000000000000E+00 0.000000000000000000E+00
pair_coeff 27   66   4.932491727818341110E-01 2.475512739231275461E+00
pair_coeff 28   66   1.281521444557910949E-01 2.654656020425442797E+00
pair_coeff 29   66   1.631795210249484540E-01 3.202282257861074122E+00
pair_coeff 30     66   2.287789941124505622E-01 3.525600804795111287E+00
pair_coeff 31      66   1.547553682540754594E-01 3.273740620549896452E+00
pair_coeff 32     66   2.568128228971093829E-01 3.556471475605421873E+00
pair_coeff 33     66   3.916479623591037629E-01 3.648044024788604123E+00
pair_coeff 34   66   2.311578136403500405E-01 3.623198090106222846E+00
pair_coeff 35   66   1.699734522439199091E-01 3.403069350469131837E+00
pair_coeff 36    66   3.346797334466397600E-02 3.373064141271939320E+00
pair_coeff 37    66   1.887775625586927686E-01 3.863941658073751118E+00
pair_coeff 38   66   1.495347460074094303E-01 3.520538554301717582E+00
pair_coeff 39  66   2.565663406640278366E-01 3.541160124536279596E+00
pair_coeff 40   66   6.588284015242455716E-02 2.833305148764191372E+00
pair_coeff 41  66   2.610359539032401366E-01 3.602370236056116504E+00
pair_coeff 42  66   2.134245836275632802E-01 3.696248832273197671E+00
pair_coeff 43  66   3.001539710398187233E-01 3.096329304387715808E+00
pair_coeff 44   66   1.093521648109900685E-01 3.709040368522185549E+00
pair_coeff 45  66   2.438613038865376503E-01 3.545054694423006580E+00
pair_coeff 46   66   1.349776321912045940E-01 3.349203888541882890E+00
pair_coeff 47   66   1.460124266502917378E-01 3.500311396601526681E+00
pair_coeff 48  66   1.603659610572732153E-01 3.780111860100299648E+00
pair_coeff 49   66   2.112546981841710303E-01 3.281959766656903810E+00
pair_coeff 50  66   1.519299496369445057E-01 3.697231624767261415E+00
pair_coeff 51  66   2.148406765408863717E-01 3.284811216535175493E+00
pair_coeff 52  66   1.932740453273771308E-01 3.442005122285029639E+00
pair_coeff 53   66   2.134245836275632802E-01 3.696248832273197671E+00
pair_coeff 54      66   4.288601739941917956E-01 3.746056886190522572E+00
pair_coeff 55  66   2.692761857664918157E-01 3.452462297648919431E+00
pair_coeff 56      66   1.207132438148451475E-01 3.613093205741105152E+00
pair_coeff 57     66   3.164052463383004721E-01 3.472392418844832296E+00
pair_coeff 58   66   0.000000000000000000E+00 0.000000000000000000E+00
pair_coeff 59  66   2.692761857664918157E-01 3.452462297648919431E+00
pair_coeff 60  66   3.572912051620057983E-01 3.770469473586865128E+00
pair_coeff 61  66   3.211733836732513225E-01 3.141163244384396869E+00
pair_coeff 62   66   1.753481764061503856E-01 3.771416059562691103E+00
pair_coeff 63   66   1.270605531769710694E-01 3.582365233831064533E+00
pair_coeff 64   66   2.320557182122369999E-01 3.201331989309867510E+00
pair_coeff 65   66   1.770662891134783812E-01 3.850734566032467665E+00
pair_coeff 66   66   2.197789839249462973E-01 3.645291530929309243E+00
pair_coeff 1      67   1.691446126797976623E-01 2.985294938784757601E+00
pair_coeff 2     67   1.038204303792348571E-01 3.238295444039348325E+00
pair_coeff 3     67   1.557729521826987651E-01 3.026552867598893748E+00
pair_coeff 4     67   1.557729521826987651E-01 3.026552867598893748E+00
pair_coeff 5     67   1.362684993430692826E-01 3.132654330460733050E+00
pair_coeff 6      67   1.059571877347386532E-01 3.247362366332479766E+00
pair_coeff 7     67   9.149991811937653596E-02 3.327737337717295407E+00
pair_coeff 8     67   6.710391648259360353E-02 3.504245404295543764E+00
pair_coeff 9     67   1.118277109009218756E-01 3.218307850690846461E+00
pair_coeff 10     67   9.584488629822959793E-02 3.302105917046649353E+00
pair_coeff 11     67   1.037675482704622926E-01 3.258683872122532410E+00
pair_coeff 12      67   1.015608295071512290E-01 3.259466857310918897E+00
pair_coeff 13    67   1.612780240082512320E-02 4.438140034683073054E+00
pair_coeff 14    67   5.939874248642398880E-02 3.858779830233354247E+00
pair_coeff 15    67   1.235513646855942310E-01 3.474970199400187365E+00
pair_coeff 16    67   1.795625489418590515E-01 3.334483745402706312E+00
pair_coeff 17    67   2.167586951297953424E-01 3.317550369341032201E+00
pair_coeff 18   67   1.334940503517269006E-01 3.425251170357942243E+00
pair_coeff 19    67   1.367115557872998488E-01 3.331489923654913365E+00
pair_coeff 20     67   6.634513912854232698E-02 2.653504030845614370E+00
pair_coeff 21      67   0.000000000000000000E+00 0.000000000000000000E+00
pair_coeff 22    67   0.000000000000000000E+00 0.000000000000000000E+00
pair_coeff 23      67   2.662042561611659419E-01 3.132536959416989397E+00
pair_coeff 24   67   1.570569025311612521E-01 2.625806260038883178E+00
pair_coeff 25   67   8.637937685043090008E-02 2.900929489772888559E+00
pair_coeff 26     67   0.000000000000000000E+00 0.000000000000000000E+00
pair_coeff 27   67   3.637073185416969667E-01 2.282864724856101368E+00
pair_coeff 28   67   9.449559248627407981E-02 2.448066814448311757E+00
pair_coeff 29   67   1.203237416459956299E-01 2.953075978826793957E+00
pair_coeff 30     67   1.924808221665462171E-01 3.180537650420577123E+00
pair_coeff 31      67   8.111532584620605169E-02 3.195685452558168382E+00
pair_coeff 32     67   1.893661628589180523E-01 3.279701674707491854E+00
pair_coeff 33     67   2.887895977576290796E-01 3.364147914463202049E+00
pair_coeff 34   67   1.944822171822568335E-01 3.268582740519445640E+00
pair_coeff 35   67   1.253333851332271154E-01 3.138237526839545488E+00
pair_coeff 36    67   2.467829144763044116E-02 3.110567366814649404E+00
pair_coeff 37    67   1.391989786659572903E-01 3.563244078823733396E+00
pair_coeff 38   67   1.258094999745671128E-01 3.175970860479923275E+00
pair_coeff 39  67   2.158594165642706009E-01 3.194574123915934649E+00
pair_coeff 40   67   5.542984087504426033E-02 2.555999445121150515E+00
pair_coeff 41  67   2.196198790769573750E-01 3.249793383002357761E+00
pair_coeff 42  67   1.795625489418590515E-01 3.334483745402706312E+00
pair_coeff 43  67   1.705399805009815140E-01 2.982149521307246864E+00
pair_coeff 44   67   9.200230410212105470E-02 3.346023328270764097E+00
pair_coeff 45  67   2.051701662942675142E-01 3.198087518325217538E+00
pair_coeff 46   67   9.952850481329482413E-02 3.088563953776058746E+00
pair_coeff 47   67   1.228460332960751161E-01 3.157723407013565797E+00
pair_coeff 48  67   1.349222298646011453E-01 3.410138798895884893E+00
pair_coeff 49   67   1.557729521826987651E-01 3.026552867598893748E+00
pair_coeff 50  67   1.278246795834196148E-01 3.335370348482007863E+00
pair_coeff 51  67   1.584171463231851262E-01 3.029182413485949965E+00
pair_coeff 52  67   1.425145517695953212E-01 3.174143260066013106E+00
pair_coeff 53   67   1.795625489418590515E-01 3.334483745402706312E+00
pair_coeff 54      67   3.608170374432017602E-01 3.379416907025193595E+00
pair_coeff 55  67   2.265527122683737016E-01 3.114557470430365349E+00
pair_coeff 56      67   1.015608295071512290E-01 3.259466857310918897E+00
pair_coeff 57     67   2.662042561611659419E-01 3.132536959416989397E+00
pair_coeff 58   67   0.000000000000000000E+00 0.000000000000000000E+00
pair_coeff 59  67   2.265527122683737016E-01 3.114557470430365349E+00
pair_coeff 60  67   3.006032314691269858E-01 3.401440147220920363E+00
pair_coeff 61  67   1.194644161845258429E-01 3.246658638196322055E+00
pair_coeff 62   67   2.135172342494472131E-01 3.198981952667974138E+00
pair_coeff 63   67   1.069010720818995841E-01 3.231746341860607608E+00
pair_coeff 64   67   1.952376598350860082E-01 2.888006183129844473E+00
pair_coeff 65   67   2.140384144044120418E-01 3.270244578605614905E+00
pair_coeff 66   67   3.212613590771104533E-01 2.999274180977609561E+00
pair_coeff 67   67   1.194971397251269885E-01 3.100004256511835088E+00
pair_coeff 1      68     4.228207516674085675E-01 3.056859151858752899E+00
pair_coeff 2     68     4.910239828909634396E-01 2.981611307668237565E+00
pair_coeff 3     68     3.843825015158260361E-01 3.105805176400184386E+00
pair_coeff 4     68     3.843825015158260361E-01 3.105805176400184386E+00
pair_coeff 5     68     3.014499067379129427E-01 3.273761725414885415E+00
pair_coeff 6      68     2.990356735930130294E-01 3.258641081240354787E+00
pair_coeff 7     68     2.990356735930130294E-01 3.258641081240354787E+00
pair_coeff 8     68     2.990356735930130294E-01 3.258641081240354787E+00
pair_coeff 9     68     2.990356735930130294E-01 3.258641081240354787E+00
pair_coeff 10     68     2.990356735930130294E-01 3.258641081240354787E+00
pair_coeff 11     68     2.990356735930130294E-01 3.258641081240354787E+00
pair_coeff 12      68     1.969066010196180716E-01 3.482000009875157343E+00
pair_coeff 13    68     3.126865710011655919E-02 4.741144586247799886E+00
pair_coeff 14    68     1.151625537581669190E-01 4.122229798668242573E+00
pair_coeff 15    68     2.395419512585078570E-01 3.712216383328954539E+00
pair_coeff 16    68     3.481366916176150683E-01 3.562138516112925313E+00
pair_coeff 17    68     4.202527500668978289E-01 3.544049049891872194E+00
pair_coeff 18   68     2.588188757285546648E-01 3.659102893548325852E+00
pair_coeff 19    68     2.650569899912606497E-01 3.558940297566233646E+00
pair_coeff 20     68     1.286302593565866181E-01 2.834666362961839603E+00
pair_coeff 21      68     0.000000000000000000E+00 0.000000000000000000E+00
pair_coeff 22    68     0.000000000000000000E+00 0.000000000000000000E+00
pair_coeff 23      68     5.161180300714267588E-01 3.346404243736659900E+00
pair_coeff 24   68     1.091960338095528060E+00 2.267299599251422659E+00
pair_coeff 25   68     1.091960338095528060E+00 2.267299599251422659E+00
pair_coeff 26     68     0.000000000000000000E+00 0.000000000000000000E+00
pair_coeff 27   68     8.045846089363817288E-01 2.385694166082639622E+00
pair_coeff 28   68     2.090408838393064406E-01 2.558337624572998514E+00
pair_coeff 29   68     2.661772960911888974E-01 3.086094440015471729E+00
pair_coeff 30     68     3.731826988633197284E-01 3.397682079611450412E+00
pair_coeff 31      68     2.524358768718786838E-01 3.154960092081345202E+00
pair_coeff 32     68     4.189112847674477114E-01 3.427432675553883090E+00
pair_coeff 33     68     6.388534234294728220E-01 3.515682714787159213E+00
pair_coeff 34   68     3.770630126787305469E-01 3.491738260580458331E+00
pair_coeff 35   68     2.772595092901040115E-01 3.279596411493302277E+00
pair_coeff 36    68     5.459272459301211383E-02 3.250679875779549644E+00
pair_coeff 37    68     3.079326428276232264E-01 3.723746973975487151E+00
pair_coeff 38   68     2.439200342906357177E-01 3.392803501821101797E+00
pair_coeff 39  68     4.185092246687046047E-01 3.412676863417832607E+00
pair_coeff 40   68     1.074676291512047521E-01 2.730504859465051837E+00
pair_coeff 41  68     4.258000265972445297E-01 3.471666099725899457E+00
pair_coeff 42  68     3.481366916176150683E-01 3.562138516112925313E+00
pair_coeff 43  68     4.896090631997686571E-01 2.983985758054453097E+00
pair_coeff 44   68     1.783744882218230021E-01 3.574465939406219039E+00
pair_coeff 45  68     3.977848573281826949E-01 3.416430127342078293E+00
pair_coeff 46   68     2.201745718076525138E-01 3.227685340208292786E+00
pair_coeff 47   68     2.381744515327116618E-01 3.373310242361340361E+00
pair_coeff 48  68     2.615878367038697028E-01 3.642958757134699077E+00
pair_coeff 49   68     3.445971896229899079E-01 3.162881024422723453E+00
pair_coeff 50  68     2.478270737383122535E-01 3.563085650127790327E+00
pair_coeff 51  68     3.504466124968692586E-01 3.165629015669813917E+00
pair_coeff 52  68     3.152672741451525984E-01 3.317119483865758500E+00
pair_coeff 53   68     3.481366916176150683E-01 3.562138516112925313E+00
pair_coeff 54      68     6.995537233959522316E-01 3.610139393576149658E+00
pair_coeff 55  68     4.392414353153730744E-01 3.327197243460355836E+00
pair_coeff 56      68     1.969066010196180716E-01 3.482000009875157343E+00
pair_coeff 57     68     5.161180300714267588E-01 3.346404243736659900E+00
pair_coeff 58   68     0.000000000000000000E+00 0.000000000000000000E+00
pair_coeff 59  68     4.392414353153730744E-01 3.327197243460355836E+00
pair_coeff 60  68     5.828109208179663714E-01 3.633666223556641928E+00
pair_coeff 61  68     2.642763169106269738E-01 3.392901247311097990E+00
pair_coeff 62   68     2.860267218407508971E-01 3.634578464727707292E+00
pair_coeff 63   68     2.072602877620044470E-01 3.452386935315056249E+00
pair_coeff 64   68     3.785276683511555329E-01 3.085178649883229873E+00
pair_coeff 65   68     2.888292953006066366E-01 3.711019072424234899E+00
pair_coeff 66   68     3.585019450441149225E-01 3.513030089156019553E+00
pair_coeff 67   68     2.643487071424846513E-01 3.239640960354239319E+00
pair_coeff 68     68     5.847858712655799041E-01 3.385567464934501558E+00
pair_coeff 1      69      4.228207516674085675E-01 3.056859151858752899E+00
pair_coeff 2     69      4.910239828909634396E-01 2.981611307668237565E+00
pair_coeff 3     69      3.843825015158260361E-01 3.105805176400184386E+00
pair_coeff 4     69      3.843825015158260361E-01 3.105805176400184386E+00
pair_coeff 5     69      3.014499067379129427E-01 3.273761725414885415E+00
pair_coeff 6      69      2.990356735930130294E-01 3.258641081240354787E+00
pair_coeff 7     69      2.990356735930130294E-01 3.258641081240354787E+00
pair_coeff 8     69      2.990356735930130294E-01 3.258641081240354787E+00
pair_coeff 9     69      2.990356735930130294E-01 3.258641081240354787E+00
pair_coeff 10     69      2.990356735930130294E-01 3.258641081240354787E+00
pair_coeff 11     69      2.990356735930130294E-01 3.258641081240354787E+00
pair_coeff 12      69      1.969066010196180716E-01 3.482000009875157343E+00
pair_coeff 13    69      3.126865710011655919E-02 4.741144586247799886E+00
pair_coeff 14    69      1.151625537581669190E-01 4.122229798668242573E+00
pair_coeff 15    69      2.395419512585078570E-01 3.712216383328954539E+00
pair_coeff 16    69      3.481366916176150683E-01 3.562138516112925313E+00
pair_coeff 17    69      4.202527500668978289E-01 3.544049049891872194E+00
pair_coeff 18   69      2.588188757285546648E-01 3.659102893548325852E+00
pair_coeff 19    69      2.650569899912606497E-01 3.558940297566233646E+00
pair_coeff 20     69      1.286302593565866181E-01 2.834666362961839603E+00
pair_coeff 21      69      0.000000000000000000E+00 0.000000000000000000E+00
pair_coeff 22    69      0.000000000000000000E+00 0.000000000000000000E+00
pair_coeff 23      69      5.161180300714267588E-01 3.346404243736659900E+00
pair_coeff 24   69      1.091960338095528060E+00 2.267299599251422659E+00
pair_coeff 25   69      1.091960338095528060E+00 2.267299599251422659E+00
pair_coeff 26     69      0.000000000000000000E+00 0.000000000000000000E+00
pair_coeff 27   69      8.045846089363817288E-01 2.385694166082639622E+00
pair_coeff 28   69      2.090408838393064406E-01 2.558337624572998514E+00
pair_coeff 29   69      2.661772960911888974E-01 3.086094440015471729E+00
pair_coeff 30     69      3.731826988633197284E-01 3.397682079611450412E+00
pair_coeff 31      69      2.524358768718786838E-01 3.154960092081345202E+00
pair_coeff 32     69      4.189112847674477114E-01 3.427432675553883090E+00
pair_coeff 33     69      6.388534234294728220E-01 3.515682714787159213E+00
pair_coeff 34   69      3.770630126787305469E-01 3.491738260580458331E+00
pair_coeff 35   69      2.772595092901040115E-01 3.279596411493302277E+00
pair_coeff 36    69      5.459272459301211383E-02 3.250679875779549644E+00
pair_coeff 37    69      3.079326428276232264E-01 3.723746973975487151E+00
pair_coeff 38   69      2.439200342906357177E-01 3.392803501821101797E+00
pair_coeff 39  69      4.185092246687046047E-01 3.412676863417832607E+00
pair_coeff 40   69      1.074676291512047521E-01 2.730504859465051837E+00
pair_coeff 41  69      4.258000265972445297E-01 3.471666099725899457E+00
pair_coeff 42  69      3.481366916176150683E-01 3.562138516112925313E+00
pair_coeff 43  69      4.896090631997686571E-01 2.983985758054453097E+00
pair_coeff 44   69      1.783744882218230021E-01 3.574465939406219039E+00
pair_coeff 45  69      3.977848573281826949E-01 3.416430127342078293E+00
pair_coeff 46   69      2.201745718076525138E-01 3.227685340208292786E+00
pair_coeff 47   69      2.381744515327116618E-01 3.373310242361340361E+00
pair_coeff 48  69      2.615878367038697028E-01 3.642958757134699077E+00
pair_coeff 49   69      3.445971896229899079E-01 3.162881024422723453E+00
pair_coeff 50  69      2.478270737383122535E-01 3.563085650127790327E+00
pair_coeff 51  69      3.504466124968692586E-01 3.165629015669813917E+00
pair_coeff 52  69      3.152672741451525984E-01 3.317119483865758500E+00
pair_coeff 53   69      3.481366916176150683E-01 3.562138516112925313E+00
pair_coeff 54      69      6.995537233959522316E-01 3.610139393576149658E+00
pair_coeff 55  69      4.392414353153730744E-01 3.327197243460355836E+00
pair_coeff 56      69      1.969066010196180716E-01 3.482000009875157343E+00
pair_coeff 57     69      5.161180300714267588E-01 3.346404243736659900E+00
pair_coeff 58   69      0.000000000000000000E+00 0.000000000000000000E+00
pair_coeff 59  69      4.392414353153730744E-01 3.327197243460355836E+00
pair_coeff 60  69      5.828109208179663714E-01 3.633666223556641928E+00
pair_coeff 61  69      2.642763169106269738E-01 3.392901247311097990E+00
pair_coeff 62   69      2.860267218407508971E-01 3.634578464727707292E+00
pair_coeff 63   69      2.072602877620044470E-01 3.452386935315056249E+00
pair_coeff 64   69      3.785276683511555329E-01 3.085178649883229873E+00
pair_coeff 65   69      2.888292953006066366E-01 3.711019072424234899E+00
pair_coeff 66   69      3.585019450441149225E-01 3.513030089156019553E+00
pair_coeff 67   69      2.643487071424846513E-01 3.239640960354239319E+00
pair_coeff 68     69      5.847858712655799041E-01 3.385567464934501558E+00
pair_coeff 69      69      5.847858712655799041E-01 3.385567464934501558E+00

#           bond_id     k_harmonic               r0
bond_coeff 1    3.752390057361376989E+02 1.0000000000E+00
bond_coeff 2    4.469407265774378857E+02 1.0000000000E+00
bond_coeff 3    3.492741395793498782E+02 1.0900000000E+00
bond_coeff 4    1.109292543021032543E+03 1.1200000000E+00
bond_coeff 5    6.002423518164436018E+02 1.2300000000E+00
bond_coeff 6    5.004182600382409305E+02 1.2500000000E+00
bond_coeff 7    4.997323135755258363E+02 1.3200000000E+00
bond_coeff 8    3.750034177820267587E+02 1.3300000000E+00
bond_coeff 9    4.481438814531548473E+02 1.3300000000E+00
bond_coeff 10   4.988771510516252761E+02 1.3300000000E+00
bond_coeff 11   4.506166347992351575E+02 1.3400000000E+00
bond_coeff 12   5.021156787762906788E+02 1.3400000000E+00
bond_coeff 13   4.509063097514340939E+02 1.3600000000E+00
bond_coeff 14   5.006787762906309922E+02 1.3800000000E+00
bond_coeff 15   3.999040630975143245E+02 1.3900000000E+00
bond_coeff 16   4.987256214149139169E+02 1.3900000000E+00
bond_coeff 17   4.000573613766730432E+02 1.4000000000E+00
bond_coeff 18   3.997916347992352257E+02 1.4300000000E+00
bond_coeff 19   4.501321462715105213E+02 1.4300000000E+00
bond_coeff 20   3.002216180688336635E+02 1.4350000000E+00
bond_coeff 21   4.498431883365200861E+02 1.4700000000E+00
bond_coeff 22   2.999759082217973400E+02 1.4800000000E+00
bond_coeff 23   3.999678776290630822E+02 1.4800000000E+00
bond_coeff 24   4.502256214149139737E+02 1.4800000000E+00
bond_coeff 25   4.501075525812619276E+02 1.5000000000E+00
bond_coeff 26   2.998439770554493293E+02 1.5200000000E+00
bond_coeff 27   4.000342973231357746E+02 1.5300000000E+00
bond_coeff 28   2.998509560229445583E+02 1.6100000000E+00
bond_coeff 29   2.997267686424473823E+02 1.6300000000E+00
bond_coeff 30   2.059762906309751429E+02 1.7800000000E+00
bond_coeff 31   4.498158699808795404E+02 1.7800000000E+00
bond_coeff 32   4.498283460803058915E+02 1.8300000000E+00
bond_coeff 33   3.000447179732313998E+02 1.8700000000E+00
bond_coeff 34   5.996787762906310348E+01 1.9800000000E+00
bond_coeff 35   6.003824091778202643E+01 2.0000000000E+00
bond_coeff 36   5.003070745697896768E+02 2.0400000000E+00
bond_coeff 37   6.303570745697896882E+01 2.2100000000E+00
bond_coeff 38   5.544933078393881942E+02 1.0000000000E+00
bond_coeff 39   3.499282982791586960E+02 1.1000000000E+00
bond_coeff 40   5.997939651051625560E+02 1.7580000000E+00
bond_coeff 41   4.498287762906309695E+02 1.5300000000E+00
bond_coeff 42   4.443412045889101023E+02 1.9379900000E+00
bond_coeff 43   5.996787762906310491E+02 1.7600000000E+00
bond_coeff 44   5.010264698852772653E+02 1.2650000000E+00
bond_coeff 45   4.486555927342256496E+02 1.3500000000E+00
bond_coeff 46   5.551285014340344333E+02 1.6329900000E+00
bond_coeff 47   3.502490798279158639E+02 2.3383900000E+00
bond_coeff 48   6.001610301147227347E+02 2.9028300000E+00
bond_coeff 49   4.458838312619503199E+02 2.7938800000E+00
bond_coeff 50   4.438154039196940630E+02 2.9118900000E+00
bond_coeff 51   4.093283460803059484E+02 2.0770000000E+00
bond_coeff 52   6.001731835564053199E+02 2.8740700000E+00
bond_coeff 53   8.843212237093690931E+01 1.1000000000E+00
bond_coeff 54   5.616634799235181674E+01 1.8400000000E+00
bond_coeff 55   5.138623326959847191E+02 1.0100000000E+00
bond_coeff 56   3.107074569789675138E+02 1.4100000000E+00
bond_coeff 57   4.421606118546845323E+02 1.0200000000E+00
bond_coeff 58   2.390057361376672986E+02 1.4600000000E+00
bond_coeff 59   5.138623326959847191E+02 1.2900000000E+00
bond_coeff 60   4.421606118546845323E+02 9.7200000000E-01
bond_coeff 61   8.126195028680688210E+02 1.2200000000E+00
bond_coeff 62   4.660611854684512423E+02 1.2200000000E+00
bond_coeff 63   2.390057361376672986E+02 1.5400000000E+00
bond_coeff 64   1.792543021032504669E+02 1.5600000000E+00
bond_coeff 65   2.270554493307839437E+02 1.5400000000E+00
bond_coeff 66   1.063575525812619560E+02 1.7600000000E+00
bond_coeff 67   1.314531548757170185E+02 1.6900000000E+00
bond_coeff 68   2.031548757170172053E+02 1.7500000000E+00
bond_coeff 69   2.031548757170172053E+02 1.5100000000E+00
bond_coeff 70   1.434034416826003735E+02 1.5700000000E+00
bond_coeff 71   1.792543021032504669E+02 9.7100000000E-01
bond_coeff 72   1.912045889101338503E+02 1.5000000000E+00
bond_coeff 73   2.629063097514340370E+02 1.4500000000E+00
bond_coeff 74   5.497131931166347840E+02 1.5200000000E+00
bond_coeff 75   8.365200764818355594E+01 1.0300000000E+00
bond_coeff 76   1.912045889101338503E+02 1.7400000000E+00
bond_coeff 77   1.912045889101338503E+02 1.7200000000E+00
bond_coeff 78   2.270554493307839437E+02 1.6400000000E+00
bond_coeff 79   2.031548757170172053E+02 1.6700000000E+00
bond_coeff 80   1.912045889101338503E+02 1.6600000000E+00
bond_coeff 81   2.151051625239005887E+02 1.6500000000E+00
bond_coeff 82   5.138623326959847191E+02 1.3100000000E+00
bond_coeff 83   1.553537284894837569E+02 1.0100000000E+00
bond_coeff 84   3.585086042065009337E+01 1.8900000000E+00
bond_coeff 85   1.015774378585086026E+02 1.9300000000E+00
bond_coeff 86   1.553537284894837569E+02 1.3600000000E+00
bond_coeff 87   1.673040152963671119E+02 1.7900000000E+00
bond_coeff 88   1.147227533460803102E+02 1.3500000000E+00
bond_coeff 89   1.553537284894837569E+02 1.3900000000E+00
bond_coeff 90   2.031548757170172053E+02 1.3800000000E+00
bond_coeff 91   2.270554493307839437E+02 9.8300000000E-01
bond_coeff 92   1.553537284894837569E+02 1.3000000000E+00
bond_coeff 93   4.182600382409177655E+02 1.0800000000E+00
bond_coeff 94   1.553537284894837569E+02 1.9000000000E+00
bond_coeff 95   1.314531548757170185E+03 1.1600000000E+00
bond_coeff 96   1.434034416826003735E+02 1.8000000000E+00
bond_coeff 97   1.553537284894837569E+02 1.4200000000E+00
bond_coeff 98   4.780114722753345973E+02 9.8400000000E-01
bond_coeff 99   1.195028680688336493E+02 1.0800000000E+00
bond_coeff 100  1.195028680688336493E+02 1.9100000000E+00
bond_coeff 101  4.182600382409177655E+02 1.0300000000E+00
bond_coeff 102  5.258126195028680741E+02 1.2800000000E+00
bond_coeff 103  1.314531548757170185E+02 1.2200000000E+00
bond_coeff 104  1.434034416826003735E+02 1.1100000000E+00
bond_coeff 105  1.195028680688336635E+03 1.2100000000E+00
bond_coeff 106  4.660611854684512423E+02 1.0700000000E+00
bond_coeff 107  9.560229445506691945E+02 1.2100000000E+00
bond_coeff 108  6.931166347992351575E+02 1.2100000000E+00
bond_coeff 109  8.723709369024857097E+01 1.8500000000E+00
bond_coeff 110  3.943594646271510555E+02 1.1100000000E+00
bond_coeff 111  1.099426386233269568E+02 2.0900000000E+00
bond_coeff 112  1.314531548757170185E+02 1.8200000000E+00
bond_coeff 113  9.918738049713192595E+01 1.9600000000E+00
bond_coeff 114  5.616634799235181674E+01 1.8600000000E+00
bond_coeff 115  1.673040152963671119E+02 1.2100000000E+00
bond_coeff 116  1.673040152963671119E+02 1.2800000000E+00
bond_coeff 117  1.434034416826003735E+02 1.7100000000E+00
bond_coeff 118  1.314531548757170185E+02 1.6000000000E+00
bond_coeff 119  4.541108986615678873E+02 1.2100000000E+00
bond_coeff 120  4.182600382409177797E+01 1.6100000000E+00
bond_coeff 121  1.314531548757170185E+02 1.9400000000E+00
bond_coeff 122  1.553537284894837569E+02 1.5900000000E+00
bond_coeff 123  1.434034416826003735E+02 2.1000000000E+00
bond_coeff 124  1.195028680688336493E+02 2.1200000000E+00
bond_coeff 125  5.736137667304015508E+01 2.1300000000E+00
bond_coeff 126  2.031548757170172053E+02 1.2600000000E+00
bond_coeff 127  1.195028680688336635E+03 1.1400000000E+00
bond_coeff 128  1.912045889101338503E+02 1.2300000000E+00
bond_coeff 129  7.887189292543021111E+02 1.3000000000E+00
bond_coeff 130  2.390057361376672986E+02 1.3100000000E+00
bond_coeff 131  5.975143403441682466E+01 2.0400000000E+00
bond_coeff 132  8.245697896749521760E+01 1.3400000000E+00
bond_coeff 133  6.214149139579350276E+02 9.3800000000E-01
bond_coeff 134  3.107074569789675138E+02 1.1600000000E+00
bond_coeff 135  3.465583173996176214E+01 2.0700000000E+00
bond_coeff 136  6.094646271510516300E+01 1.1600000000E+00
bond_coeff 137  9.321223709369024846E+01 2.1600000000E+00
bond_coeff 138  4.302103250478011631E+01 2.2300000000E+00
bond_coeff 139  2.390057361376673128E+01 2.0500000000E+00
bond_coeff 140  8.962715105162524196E+02 1.1900000000E+00
bond_coeff 141  7.289674952198853362E+02 1.4700000000E+00
bond_coeff 142  3.943594646271510555E+02 1.5700000000E+00
bond_coeff 143  1.195028680688336635E+03 1.1800000000E+00
bond_coeff 144  5.497131931166347840E+01 1.8700000000E+00
bond_coeff 145  1.063575525812619617E+03 1.1700000000E+00
bond_coeff 146  2.151051625239005887E+02 1.1300000000E+00
bond_coeff 147  5.975143403441682466E+01 2.0200000000E+00
bond_coeff 148  1.792543021032504669E+02 1.0700000000E+00
bond_coeff 149  2.509560229445506820E+02 1.1400000000E+00
bond_coeff 150  1.553537284894837569E+02 1.0600000000E+00
bond_coeff 151  5.377629063097514290E+02 1.4600000000E+00
bond_coeff 152  8.126195028680688210E+02 1.1700000000E+00
bond_coeff 153  9.201720841300191012E+01 2.1500000000E+00
bond_coeff 154  2.390057361376672986E+02 1.0400000000E+00
bond_coeff 155  6.094646271510516300E+01 1.4000000000E+00
bond_coeff 156  1.314531548757170185E+03 1.1100000000E+00
bond_coeff 157  4.660611854684512423E+02 1.5600000000E+00
bond_coeff 158  7.528680688336520461E+02 1.4900000000E+00
bond_coeff 159  5.019120458891013641E+02 1.5400000000E+00
bond_coeff 160  3.585086042065009337E+01 2.1700000000E+00
bond_coeff 161  3.585086042065009337E+01 2.2700000000E+00
bond_coeff 162  6.692160611854684475E+02 1.4500000000E+00
bond_coeff 163  7.648183556405354011E+02 1.2500000000E+00
bond_coeff 164  8.484703632887188860E+02 1.2700000000E+00
bond_coeff 165  5.616634799235181390E+02 1.1600000000E+00
bond_coeff 166  1.434034416826003735E+03 1.1400000000E+00
bond_coeff 167  5.019120458891013641E+02 1.1700000000E+00
bond_coeff 168  5.377629063097514290E+02 1.1900000000E+00
bond_coeff 169  9.201720841300191296E+02 1.1400000000E+00
bond_coeff 170  2.270554493307839437E+02 1.2400000000E+00
bond_coeff 171  1.434034416826003735E+03 1.1300000000E+00
bond_coeff 172  8.962715105162523344E+01 2.9100000000E+00
bond_coeff 173  5.736137667304015508E+01 2.2400000000E+00
bond_coeff 174  4.182600382409177655E+02 7.4300000000E-01
bond_coeff 175  2.390057361376672986E+02 1.2000000000E+00
bond_coeff 176  1.111376673040152951E+02 2.3300000000E+00
bond_coeff 177  9.679732313575526348E+01 2.4200000000E+00
bond_coeff 178  8.365200764818355594E+01 1.3200000000E+00
bond_coeff 179  1.159177820267686457E+03 1.2000000000E+00
bond_coeff 180  1.314531548757170185E+03 1.2000000000E+00
bond_coeff 181  4.302103250478011773E+02 1.5800000000E+00
bond_coeff 182  5.377629063097514717E+01 1.4700000000E+00
bond_coeff 183  1.553537284894837445E+00 2.7700000000E+00
bond_coeff 184  5.138623326959846693E+00 2.2500000000E+00
bond_coeff 185  1.003824091778202643E+02 2.1800000000E+00
bond_coeff 186  5.019120458891013214E+01 1.5200000000E+00
bond_coeff 187  9.321223709369024846E+01 2.1900000000E+00
bond_coeff 188  2.748565965583173920E+01 1.4800000000E+00
bond_coeff 189  1.912045889101338389E+03 1.0700000000E+00
bond_coeff 190  8.604206500956022907E+00 2.8000000000E+00
bond_coeff 191  8.723709369024857097E+01 2.5200000000E+00
bond_coeff 192  6.692160611854685026E-01 2.7900000000E+00
bond_coeff 193  8.126195028680688210E+02 1.1600000000E+00
bond_coeff 194  1.792543021032504846E+00 2.6800000000E+00
bond_coeff 195  4.063097514340344105E+02 1.5900000000E+00
bond_coeff 196  1.195028680688336493E+02 1.1800000000E+00
bond_coeff 197  3.465583173996176214E+01 2.5400000000E+00
bond_coeff 198  1.792543021032504839E+03 1.1000000000E+00
bond_coeff 199  8.245697896749521760E+02 1.2900000000E+00
bond_coeff 200  3.346080305927342380E+01 2.4400000000E+00
bond_coeff 201  1.075525812619502943E+02 2.4100000000E+00
bond_coeff 202  1.123326959847036335E+02 2.3600000000E+00
bond_coeff 203  2.031548757170171982E+01 1.4300000000E+00
bond_coeff 204  2.270554493307839206E+00 2.5700000000E+00
bond_coeff 205  1.912045889101338503E+01 2.4700000000E+00
bond_coeff 206  7.648183556405353523E-01 2.7100000000E+00
bond_coeff 207  1.553537284894837512E+03 1.1200000000E+00
bond_coeff 208  3.704588910133843171E+00 2.7500000000E+00
bond_coeff 209  5.019120458891013641E+02 1.1400000000E+00
bond_coeff 210  7.170172084130018719E-01 2.8600000000E+00
bond_coeff 211  1.051625239005736212E+01 2.6400000000E+00
bond_coeff 212  1.912045889101338389E+03 9.8500000000E-01
bond_coeff 213  1.912045889101338547E+00 2.6100000000E+00
bond_coeff 214  7.409177820267686343E+00 2.6200000000E+00
bond_coeff 215  5.975143403441682466E+01 2.4600000000E+00
bond_coeff 216  3.585086042065009693E+00 2.6600000000E+00
bond_coeff 217  1.314531548757170265E+00 2.7200000000E+00
bond_coeff 218  5.855640535372849342E+01 1.6300000000E+00
bond_coeff 219  5.736137667304014940E+02 1.1200000000E+00
bond_coeff 220  3.704588910133843171E+01 2.3200000000E+00
bond_coeff 221  1.673040152963671190E+01 1.4400000000E+00
bond_coeff 222  1.553537284894837512E+03 1.1600000000E+00
bond_coeff 223  7.170172084130019385E+00 2.6900000000E+00
bond_coeff 224  1.003824091778202643E+01 2.4900000000E+00
bond_coeff 225  3.226577437858508812E+00 2.9200000000E+00
bond_coeff 226  8.245697896749522027E-01 2.2900000000E+00
bond_coeff 227  9.799235181644359471E+00 2.4000000000E+00
bond_coeff 228  1.039674952198852864E+00 2.3700000000E+00
bond_coeff 229  1.553537284894837445E+00 2.9400000000E+00
bond_coeff 230  5.855640535372849342E+00 2.9500000000E+00
bond_coeff 231  1.673040152963671146E+00 2.9600000000E+00
bond_coeff 232  1.314531548757170119E-02 2.5600000000E+00
bond_coeff 233  5.258126195028681060E+00 2.5900000000E+00
bond_coeff 234  1.553537284894837533E+01 2.3800000000E+00
bond_coeff 235  8.365200764818355310E+02 1.1200000000E+00
bond_coeff 236  1.912045889101338547E+00 2.5000000000E+00
bond_coeff 237  2.390057361376673128E+00 2.3000000000E+00
bond_coeff 238  5.855640535372848490E+02 1.0400000000E+00
bond_coeff 239  3.346080305927342291E+00 2.9900000000E+00
bond_coeff 240  9.679732313575526437E-01 2.3400000000E+00
bond_coeff 241  1.075525812619502863E+00 2.9800000000E+00
bond_coeff 242  2.270554493307839206E+00 2.7400000000E+00
bond_coeff 243  1.063575525812619617E+03 1.1600000000E+00
bond_coeff 244  8.126195028680688210E+02 1.5000000000E+00
bond_coeff 245  1.314531548757170265E+00 2.8400000000E+00
bond_coeff 246  3.226577437858508812E-01 2.8200000000E+00
bond_coeff 247  9.082217973231357746E+02 1.2300000000E+00
bond_coeff 248  4.660611854684512423E+02 1.0500000000E+00
bond_coeff 249  3.346080305927342291E+00 2.8800000000E+00
bond_coeff 250  1.434034416826003735E+03 1.1800000000E+00
bond_coeff 251  1.673040152963671062E+03 1.1500000000E+00
bond_coeff 252  6.333652007648183258E+00 2.9000000000E+00
bond_coeff 253  1.027724665391969438E+03 1.2400000000E+00
bond_coeff 254  4.182600382409177655E+02 1.9000000000E+00
bond_coeff 255  2.270554493307839493E+03 1.0800000000E+00
bond_coeff 256  1.434034416826003735E+03 1.2100000000E+00
bond_coeff 257  7.648183556405354011E+02 9.7500000000E-01

# Dummy bond for extra excluded interactions
bond_coeff 258  0.000000000000000000E+00 0.0000000000E+00

#            angle_id     k_harmonic               theta0
angle_coeff 1    4.531159764110539356E+01 9.0000000000E+01
angle_coeff 2    5.009172539172424621E+01 9.0000000000E+01
angle_coeff 3    4.777119165305969517E+01 9.6000000000E+01
angle_coeff 4    5.495507667712937661E+01 1.0000000000E+02
angle_coeff 5    4.755587910082016379E+01 1.0300000000E+02
angle_coeff 6    5.503449877865421058E+01 1.0400000000E+02
angle_coeff 7    5.017089249514589966E+01 1.0800000000E+02
angle_coeff 8    3.017313270271808179E+01 1.0950000000E+02
angle_coeff 9    3.388969514161131968E+01 1.0950000000E+02
angle_coeff 10   4.026093651823891406E+01 1.0950000000E+02
angle_coeff 11   4.503936558918574207E+01 1.0950000000E+02
angle_coeff 12   4.769404884227261476E+01 1.0950000000E+02
angle_coeff 13   5.512715332021083015E+01 1.0950000000E+02
angle_coeff 14   4.763495597414375737E+01 1.0960000000E+02
angle_coeff 15   5.511390518798809524E+01 1.1100000000E+02
angle_coeff 16   5.509974690868934033E+01 1.1300000000E+02
angle_coeff 17   4.824003116558784221E+00 1.1500000000E+02
angle_coeff 18   4.506986336232746027E+01 1.1500000000E+02
angle_coeff 19   5.979372060785910747E+01 1.1500000000E+02
angle_coeff 20   4.480849815265150937E+01 1.1600000000E+02
angle_coeff 21   5.977192415460783081E+01 1.1600000000E+02
angle_coeff 22   6.016393470016820544E+01 1.1700000000E+02
angle_coeff 23   3.487998772914675527E+01 1.2000000000E+02
angle_coeff 24   3.980949179939617721E+01 1.2000000000E+02
angle_coeff 25   4.518712718236594128E+01 1.2000000000E+02
angle_coeff 26   4.742781120730183630E+01 1.2000000000E+02
angle_coeff 27   5.011662889878671479E+01 1.2000000000E+02
angle_coeff 28   5.997562448553279069E+01 1.2000000000E+02
angle_coeff 29   6.983461614923112393E+01 1.2000000000E+02
angle_coeff 30   6.007257868741400131E+01 1.2100000000E+02
angle_coeff 31   6.009101308875088421E+01 1.2200000000E+02
angle_coeff 32   3.481463446143215634E+01 1.2300000000E+02
angle_coeff 33   5.989285210123679093E+01 1.2400000000E+02
angle_coeff 34   3.000747691187498489E+01 1.2500000000E+02
angle_coeff 35   6.007786695576940872E+01 1.2500000000E+02
angle_coeff 36   4.491393398374964363E+01 1.2600000000E+02
angle_coeff 37   4.999795670460907360E+01 1.2600000000E+02
angle_coeff 38   6.016599430023244111E+01 1.2600000000E+02
angle_coeff 39   5.011888465123802661E+01 1.3200000000E+02
angle_coeff 40   4.751869253127933490E+01 1.5500000000E+02
angle_coeff 41   2.849707999314575346E+01 1.8000000000E+02
angle_coeff 42   4.599505140337510767E+01 1.0950000000E+02
angle_coeff 43   5.247673834306662144E+01 1.0757000000E+02
angle_coeff 44   6.547197129315762254E+01 1.1130000000E+02
angle_coeff 45   5.501891643302533197E+01 9.7400000000E+01
angle_coeff 46   5.502468723625295155E+01 1.0675000000E+02
angle_coeff 47   4.750189404085062250E+01 1.0853000000E+02
angle_coeff 48   6.553349252783840484E+01 1.0950000000E+02
angle_coeff 49   5.495659489660530284E+01 1.0760000000E+02
angle_coeff 50   4.748167072974365510E+01 1.0950000000E+02
angle_coeff 51   5.499310277888685761E+01 1.1030000000E+02
angle_coeff 52   5.502340047659377120E+01 1.1140000000E+02
angle_coeff 53   6.004396397718814882E+01 1.1720000000E+02
angle_coeff 54   6.000230905626986555E+01 1.2140000000E+02
angle_coeff 55   4.824003116558784399E+01 1.8000000000E+02
angle_coeff 56   1.804601961048520877E+02 1.0900000000E+02
angle_coeff 57   1.922293393290815686E+02 1.0600000000E+02
angle_coeff 58   1.451527664321636166E+02 1.2600000000E+02
angle_coeff 59   1.451527664321636166E+02 9.6200000000E+01
angle_coeff 60   1.569219096563931259E+02 1.1400000000E+02
angle_coeff 61   2.039984825533110495E+02 1.1900000000E+02
angle_coeff 62   2.393059122259994922E+02 1.3000000000E+02
angle_coeff 63   2.981516283471469251E+02 1.0700000000E+02
angle_coeff 64   1.569219096563931259E+02 1.3400000000E+02
angle_coeff 65   2.393059122259994922E+02 1.0100000000E+02
angle_coeff 66   2.863824851229174442E+02 1.1300000000E+02
angle_coeff 67   3.687664876925238104E+02 1.3400000000E+02
angle_coeff 68   3.569973444682943295E+02 1.1900000000E+02
angle_coeff 69   3.334590580198353678E+02 1.2600000000E+02
angle_coeff 70   2.510750554502289731E+02 8.9600000000E+01
angle_coeff 71   3.805356309167532913E+02 1.1400000000E+02
angle_coeff 72   2.863824851229174442E+02 1.3500000000E+02
angle_coeff 73   1.451527664321636166E+02 8.8300000000E+01
angle_coeff 74   1.333836232079341642E+02 6.0000000000E+01
angle_coeff 75   3.805356309167532913E+02 1.7900000000E+02
angle_coeff 76   2.510750554502289731E+02 1.8000000000E+02
angle_coeff 77   4.707657289691792926E+02 1.7800000000E+02
angle_coeff 78   4.707657289691793068E+01 5.9900000000E+01
angle_coeff 79   4.707657289691793068E+01 6.0300000000E+01
angle_coeff 80   2.510750554502289731E+02 1.2400000000E+02
angle_coeff 81   7.061485934537689673E+02 1.1800000000E+02
angle_coeff 82   1.176914322422948231E+02 1.4400000000E+02
angle_coeff 83   6.276876386255725038E+02 1.2300000000E+02
angle_coeff 84   4.707657289691792926E+02 1.1800000000E+02
angle_coeff 85   3.334590580198353678E+02 9.4800000000E+01
angle_coeff 86   9.023009805242604386E+01 1.7500000000E+02
angle_coeff 87   1.569219096563931259E+02 8.2800000000E+01
angle_coeff 88   1.176914322422948231E+02 7.7600000000E+01
angle_coeff 89   2.393059122259994922E+02 1.4500000000E+02
angle_coeff 90   2.510750554502289731E+02 5.0800000000E+01
angle_coeff 91   3.805356309167532913E+02 1.0400000000E+02
angle_coeff 92   2.628441986744584824E+02 8.4400000000E+01
angle_coeff 93   2.157676257775405304E+02 6.3300000000E+01
angle_coeff 94   2.157676257775405304E+02 6.1000000000E+01
angle_coeff 95   2.981516283471469251E+02 1.7300000000E+02
angle_coeff 96   1.922293393290815686E+02 1.7300000000E+02
angle_coeff 97   8.238400256960638046E+01 5.0900000000E+01
angle_coeff 98   4.315352515550810608E+02 1.2700000000E+02
angle_coeff 99   6.276876386255724327E+01 6.7800000000E+01
angle_coeff 100  1.569219096563931259E+02 1.8000000000E+02
angle_coeff 101  5.884571612114741583E+02 1.1800000000E+02
angle_coeff 102  3.017313270271808179E+01 1.1000000000E+02
angle_coeff 103  2.275367690017699829E+02 9.4800000000E+01
angle_coeff 104  4.315352515550810608E+02 1.7300000000E+02
angle_coeff 105  3.452282012440647918E+01 7.8500000000E+01
angle_coeff 106  7.061485934537689957E+01 1.3800000000E+02
angle_coeff 107  7.061485934537689957E+01 1.6800000000E+02
angle_coeff 108  1.569219096563931259E+02 1.6700000000E+02
angle_coeff 109  1.804601961048520664E+01 1.4900000000E+02
angle_coeff 110  3.334590580198353678E+02 1.4400000000E+02
angle_coeff 111  3.569973444682943295E+02 1.4800000000E+02
angle_coeff 112  3.216899147956058300E+02 1.4400000000E+02
angle_coeff 113  3.569973444682943295E+02 1.4800000000E+02
angle_coeff 114  3.216899147956058300E+02 1.4700000000E+02
angle_coeff 115  3.334590580198353678E+02 1.4400000000E+02
angle_coeff 116  5.099962063832776039E+03 6.0800000000E+01
angle_coeff 117  1.451527664321636394E+03 6.8000000000E+01
angle_coeff 118  2.981516283471469251E+02 1.6100000000E+02
angle_coeff 119  1.569219096563931259E+02 1.5500000000E+02
angle_coeff 120  3.099207715713764060E+02 1.5400000000E+02
angle_coeff 121  2.157676257775405304E+02 7.5300000000E+01
angle_coeff 122  3.099207715713764060E+02 6.4700000000E+01
angle_coeff 123  5.492266837973758129E+02 1.7300000000E+02
angle_coeff 124  3.334590580198353564E+03 4.5800000000E+01
angle_coeff 125  8.630705031101621216E+02 1.2300000000E+02
angle_coeff 126  5.492266837973758129E+02 1.2300000000E+02
angle_coeff 127  4.707657289691792926E+02 1.6600000000E+02
angle_coeff 128  3.805356309167532913E+02 1.6600000000E+02
angle_coeff 129  2.039984825533110495E+02 1.3900000000E+02
angle_coeff 130  6.669181160396708208E+01 1.6100000000E+02
angle_coeff 131  7.453790708678672772E+00 4.4900000000E+01
angle_coeff 132  2.510750554502289944E+01 8.4800000000E+01
angle_coeff 133  1.922293393290815686E+02 1.6100000000E+02
angle_coeff 134  3.334590580198353678E+02 7.0400000000E+01
angle_coeff 135  6.276876386255725038E+02 1.7300000000E+02
angle_coeff 136  1.922293393290815500E+00 5.1600000000E+01
angle_coeff 137  2.157676257775405304E+01 7.3300000000E+01
angle_coeff 138  7.453790708678672772E+00 1.7400000000E+02
angle_coeff 139  4.707657289691792926E+02 1.3200000000E+02
angle_coeff 140  1.451527664321636166E+02 6.9900000000E+01
angle_coeff 141  1.569219096563931082E+01 1.4400000000E+02
angle_coeff 142  1.922293393290815629E+03 9.7900000000E+01
angle_coeff 143  3.923047741409827722E+02 1.5500000000E+02
angle_coeff 144  5.884571612114741583E+02 1.0400000000E+02
angle_coeff 145  1.176914322422948231E+02 1.4900000000E+02
angle_coeff 146  5.099962063832776380E+02 1.5700000000E+02
angle_coeff 147  2.863824851229174442E+02 1.6600000000E+02
angle_coeff 148  3.334590580198353678E+02 8.9800000000E+01
angle_coeff 149  3.923047741409827722E+02 7.9100000000E+01
angle_coeff 150  6.669181160396707128E+03 4.5200000000E+01
angle_coeff 151  4.707657289691792926E+02 1.0100000000E+02
angle_coeff 152  7.453790708678671990E+02 1.2500000000E+02
angle_coeff 153  1.686910528806225784E+02 4.9600000000E+01
angle_coeff 154  5.099962063832776380E+02 1.1200000000E+02
angle_coeff 155  4.707657289691792926E+02 1.0700000000E+02
angle_coeff 156  2.981516283471469251E+02 5.9600000000E+01
angle_coeff 157  2.393059122259994922E+02 7.0200000000E+01
angle_coeff 158  3.923047741409827722E+03 1.0000000000E+02
angle_coeff 159  3.923047741409827722E+03 1.0000000000E+02
angle_coeff 160  1.059222890180653621E+03 4.6300000000E+01
angle_coeff 161  1.176914322422948317E+03 4.6300000000E+01
angle_coeff 162  4.315352515550810608E+02 9.4100000000E+01
angle_coeff 163  5.099962063832776380E+02 6.9600000000E+01
angle_coeff 164  4.707657289691792926E+02 1.3900000000E+02
angle_coeff 165  6.669181160396707355E+02 1.3200000000E+02

#               dihedral_id     k                         n phi0
dihedral_coeff 1    6.381453154875716960E-01 -1  1
dihedral_coeff 2    8.150095602294454844E-01 -1  1
dihedral_coeff 3    1.187858508604206387E+00 -1  1
dihedral_coeff 4    1.400573613766730396E+00 -1  1
dihedral_coeff 5    2.234703632887188984E+00 -1  1
dihedral_coeff 6    2.258604206500955947E+00 -1  1
dihedral_coeff 7    6.668260038240917398E-01  1  1
dihedral_coeff 8    1.278680688336519822E+00  1  1
dihedral_coeff 9    3.656787762906309469E-01 -1  2
dihedral_coeff 10   1.400573613766730396E+00 -1  2
dihedral_coeff 11   1.699330783938814537E+00 -1  2
dihedral_coeff 12   3.991395793499043609E+00 -1  2
dihedral_coeff 13   5.736137667304014975E+00 -1  2
dihedral_coeff 14   8.006692160611853737E+00 -1  2
dihedral_coeff 15   9.990439770554491616E+00 -1  2
dihedral_coeff 16   0.000000000000000000E+00  1  2
dihedral_coeff 17   9.990439770554492005E-02  1  2
dihedral_coeff 18   4.995219885277246141E-01  1  2
dihedral_coeff 19   7.504780114722753304E-01  1  2
dihedral_coeff 20   1.216539196940726431E+00  1  2
dihedral_coeff 21   3.991395793499043609E+00  1  2
dihedral_coeff 22   2.509560229445506607E-01  1  3
dihedral_coeff 23   3.011472275334607929E-01  1  3
dihedral_coeff 24   3.107074569789675111E-01  1  3
dihedral_coeff 25   6.046845124282982376E-01  1  3
dihedral_coeff 26   7.002868068833651982E-01  1  3
dihedral_coeff 27   7.624282982791585894E-01  1  3
dihedral_coeff 28   8.723709369024855720E-01  1  3
dihedral_coeff 29   9.010516252390057268E-01  1  3
dihedral_coeff 30   9.321223709369024224E-01  1  3
dihedral_coeff 31   9.990439770554492283E-01  1  3
dihedral_coeff 32   1.120936902485659692E+00  1  3
dihedral_coeff 33   1.300191204588910132E+00  1  3
dihedral_coeff 34   1.414913957934990307E+00  1  3
dihedral_coeff 35   1.837954110898661453E+00  1  3
dihedral_coeff 36   2.060229445506692070E+00  1  3
dihedral_coeff 37   2.270554493307839206E+00  1  3
dihedral_coeff 38   0.000000000000000000E+00  1  4
dihedral_coeff 39   2.390057361376672906E-01 -1  6
dihedral_coeff 40   2.390057361376672906E-01  1  6
dihedral_coeff 41   9.010516252390057268E-01  1  6
dihedral_coeff 42   8.365200764818354617E-01 -1  2
dihedral_coeff 43   6.692160611854683916E-01  1  3
dihedral_coeff 44   1.673040152963670979E-01 -1  6
dihedral_coeff 45   9.560229445506691903E-02  1  6
dihedral_coeff 46   2.390057361376672906E-01 -1  3

# Dummy dihedral for 1-4 interactions
dihedral_coeff 47 0.0 1 1

#               improper_id     k                        xi0
improper_coeff 1    2.000754348119011894E+01 0.0000000000E+00
improper_coeff 2    4.001508696238023788E+01 3.5264390000E+01
improper_coeff 3    8.003017392476047576E+01 0.0000000000E+00
improper_coeff 4    2.000754348119011894E+01 1.8000000000E+02
improper_coeff 5    4.001508696238023788E+01 -3.5264390000E+01

# ------------------------------- Run Section -------------------------------


variable mytemp equal temp
variable myvol equal vol
variable mypress equal press

fix myat1 all ave/time 10 10 1000 v_mytemp file temperature_cooling.dat
fix myat2 all ave/time 10 10 1000 v_myvol file volume_cooling.dat
fix myat3 all ave/time 10 10 1000 v_mypress file pressure_cooling.dat


timestep        0.5 # 0.5 fs
fix fxnpt all npt temp 500.0 300.0 50.0 iso 1 1 500.0
thermo 2500
run             2000000 # 1 ns =
PPPM initialization ...
  using 12-bit tables for long-range coulomb (src/kspace.cpp:342)
  G vector (1/distance) = 0.1905998
  grid = 15 15 15
  stencil order = 5
  estimated absolute RMS force accuracy = 0.030983141
  estimated relative force accuracy = 9.3304808e-05
  using double precision FFTW3
  3d grid and FFT values/proc = 2197 512
Generated 0 of 2346 mixed pair_coeff terms from geometric mixing rule
Neighbor list info ...
  update: every = 1 steps, delay = 0 steps, check = yes
  max neighbors/atom: 2000, page size: 100000
  master list distance cutoff = 14
  ghost atom cutoff = 14
  binsize = 7, bins = 8 8 8
  1 neighbor lists, perpetual/occasional/extra = 1 0 0
  (1) pair lj/cut/coul/long, perpetual
      attributes: half, newton on
      pair build: half/bin/newton
      stencil: half/bin/3d
      bin: standard
Per MPI rank memory allocation (min/avg/max) = 16.72 | 16.77 | 17.11 Mbytes
   Step          Temp          E_pair         E_mol          TotEng         Press          Volume    
         0   493.50589     -50316.187      15381.989     -17283.101     -520.72791      137322.24    
      2500   502.5519      -50298.101      15282.985     -17040.473     -708.70309      137670.58    
      5000   501.17957     -50174.685      15346.176     -16902.951     -12.865807      137759.26    
      7500   497.6854      -50148.865      15264.128     -17084.153      148.72096      137935.18    
     10000   494.13022     -50245.742      15129.569     -17442.746      10.782022      137859.9     
     12500   502.87957     -50260.751      15216.174     -17058.214      581.74432      137731.2     
     15000   492.88183     -50193.951      15393.697     -17171.478     -174.74256      138425.81    
     17500   500.97613     -50148.718      15230.516     -16999.92      -355.56807      137751.85    
     20000   489.02887     -50168.292      15122.648     -17554.676     -574.61197      138168.11    
     22500   502.20957     -50235.595      15254.683     -17018.513      75.327267      137512.59    
     25000   496.76551     -50240.964      15329.222     -17144.059     -568.10924      137890.94    
     27500   494.80072     -50335.052      15066.773     -17570.871      508.5927       137743.68    
     30000   494.3761      -50328.137      15378.246     -17267.669     -798.34243      137748.09    
     32500   499.41        -50352.125      15213.177     -17276.68      -881.84192      136978.84    
     35000   498.92032     -50280.523      15410.778     -17024.991     -211.20838      137803.36    
     37500   493.23769     -50231.386      15049.042     -17540.84       60.348861      138108.65    
     40000   496.64381     -50434.682      15201.986     -17469.366     -13.450637      136779.58    
     42500   499.60594     -50324.925      15318.769     -17136.88       439.71998      138658.21    
     45000   492.91932     -50261.263      15064.735     -17566.411      537.9221       137574.38    
     47500   494.58445     -50334.146      15103.437     -17541.035     -27.054521      137172.92    
     50000   492.6244      -50326.188      15364.268     -17342.351      611.66762      137285.68    
     52500   496.43322     -50270.153      15193.245     -17321.11      -739.26431      137021.46    
     55000   493.68819     -50387.544      15110.981     -17618.946      299.24064      136933.32    
     57500   501.02979     -50498.359      15392.442     -17185.715      494.19522      135749.87    
     60000   494.86738     -50484.814      15030.604     -17754.417     -99.684414      136394.01    
     62500   494.96429     -50484.686      15222.542     -17558.885     -602.61522      136803.48    
     65000   492.65531     -50422.341      14972.991     -17828.676     -686.37888      137574.63    
     67500   494.3391      -50555.64       15322.847     -17551.894     -693.20062      136668.85    
     70000   489.68918     -50460.521      15146.191     -17799.744     -359.08991      136908.92    
     72500   494.26942     -50482.44       15151.167     -17652.868     -496.647        137192.81    
     75000   490.60898     -50498.924      15149.583     -17801.857      211.30963      136442.7     
     77500   491.9115      -50438.2        14840.864     -18003.266     -1173.5991      137162.92    
     80000   492.53927     -50328.969      15149.36      -17563.086      317.38854      137211.37    
     82500   489.03624     -50477.002      15017.227     -17968.543      91.053184      135742.19    
     85000   497.65161     -50429.77       15095.56      -17534.834      131.87106      136662.76    
     87500   491.76208     -50417.032      15059.25      -17769.055      72.582884      137494.86    
     90000   498.41573     -50473.998      15180.471     -17466.822      488.65798      136771.97    
     92500   482.94255     -50435.572      14979.515     -18182.777     -178.09214      136787.92    
     95000   489.81007     -50464.144      15010.845     -17934.389     -532.6361       137113.15    
     97500   493.06571     -50438.565      15182.354     -17620.858      49.824547      137217.42    
    100000   489.11841     -50478.053      14886.501     -18097.382     -485.29722      137568.84    
    102500   493.56218     -50510.719      15130.979     -17726.63      -922.59981      136969.74    
    105000   492.21929     -50406.782      15152.354     -17649.349     -989.69584      136384.91    
    107500   489.61607     -50581.881      15051.498     -18018.413      49.287613      135530.81    
    110000   496.37194     -50423.041      14920.837     -17748.599      1580.3171      136155.2     
    112500   487.60257     -50458.831      15081.437     -17937.439     -1013.7074      137023.49    
    115000   489.47523     -50459.148      14923.757     -18028.458     -704.7601       136798.09    
    117500   488.81891     -50432.594      15103.435     -17845.699     -1062.3035      137017.38    
    120000   479.28309     -50454.206      14765.36      -18546.452     -294.80439      137039.31    
    122500   493.42844     -50439.643      14997.932     -17793.384     -391.08596      136596.96    
    125000   482.77924     -50403.837      14889.329     -18247.069      65.710498      137389.98    
    127500   479.59008     -50683.123      15034.909     -18494.84      -696.37376      136241.81    
    130000   483.28904     -50689.885      15091.645     -18312.566     -971.64553      135598.55    
    132500   489.1514      -50530.261      14896.16      -18138.75      -1034.8862      136851.56    
    135000   488.55915     -50594.502      14867.465     -18252.869     -588.99368      136166.53    
    137500   484.89639     -50514.905      15064.213     -18107.529     -470.02005      136882.97    
    140000   486.44659     -50546.879      15059.118     -18089.153      299.78239      136355.46    
    142500   479.54897     -50466.906      14910.546     -18404.456      3.7959999      136512.49    
    145000   490.69889     -50455.67       14934.545     -17970.426     -1218.7989      136732.91    
    147500   488.81997     -50483.895      15036.275     -17964.123      208.58202      137140.35    
    150000   489.79794     -50482.428      14747.255     -18216.697      146.50295      137133.67    
    152500   485.72339     -50516.372      14871.763     -18271.866     -902.45282      137024.71    
    155000   486.15378     -50410.113      14945.462     -18076.515     -305.35146      136795.32    
    157500   485.97687     -50364.585      15144.844     -17837.933      565.58829      137860.44    
    160000   486.78112     -50645.389      14781.736     -18453.079     -139.09327      136084.89    
    162500   484.51467     -50513.339      14869.512     -18314.316      853.37373      137020.34    
    165000   480.88938     -50577.303      14816.341     -18561.116      154.90084      136415.03    
    167500   489.12389     -50472.371      14808.974     -18169.03      -908.75552      136635.67    
    170000   482.50466     -50467.116      14955.948     -18253.549      267.11961      137201.71    
    172500   473.29204     -50533.697      14659.459     -18946.125     -196.12575      137515.94    
    175000   476.96724     -50519.155      14763.537     -18696.055      1513.6181      136231.67    
    177500   482.77909     -50576.875      15021.046     -18288.395      454.68812      136337.67    
    180000   483.26983     -50502.4        14777.929     -18439.484      1088.6385      136929.85    
    182500   479.14849     -50540.128      14966.048     -18436.5        737.66728      136348.56    
    185000   482.31145     -50589.912      14798.053     -18541.15       1446.0617      136772.35    
    187500   483.47596     -50577.745      14848.093     -18437.294     -576.35745      136209.51    
    190000   476.55978     -50581.702      14784.351     -18752.361     -1058.2935      136556.02    
    192500   481.87576     -50603.826      14672.249     -18696.452      450.42525      136127.23    
    195000   482.68744     -50471.42       14723.682     -18483.582      1461.051       136735.43    
    197500   475.61241     -50513.805      14790.739     -18711.961     -1472.4147      136542.43    
    200000   478.12748     -50487.161      14753.699     -18632.401     -764.62342      136893.79    
    202500   479.68451     -50564.744      14869.193     -18538.799     -287.83637      136572.05    
    205000   480.16006     -50513.517      14762.299     -18577.458     -324.47337      136548.44    
    207500   477.84085     -50606.613      14683.979     -18831.825      62.039926      136655.48    
    210000   484.90776     -50407.777      14658.79      -18405.418     -661.08343      137251.57    
    212500   475.98412     -50509.793      14573.021     -18912.371     -943.08647      136959.22    
    215000   475.59651     -50533.118      14683.677     -18838.904      439.17152      135981.19    
    217500   481.48448     -50476.656      14761.899     -18493.627     -1014.4624      136615.71    
    220000   477.45353     -50576.645      14594.539     -18905.149     -1.5031852      135709.35    
    222500   482.67077     -50651.384      14642.703     -18745.121      467.84367      135003.47    
    225000   480.07272     -50636.333      14639.471     -18826.226      457.16604      136166.67    
    227500   479.04996     -50810.385      14848.335     -18827.996     -42.510595      135162.33    
    230000   480.00918     -50771.851      14615.543     -18987.945      156.55264      134980.25    
    232500   479.14923     -50759.704      14603.59      -19018.508      474.31954      134931.08    
    235000   468.99029     -50708.162      14718.378     -19215.53      -183.62777      135939.2     
    237500   478.60264     -50672.676      14812.76      -18741.86      -525.18032      135626.66    
    240000   475.86285     -50712.553      14660.445     -19032.044     -282.0469       135461.63    
    242500   475.50589     -50602.918      14772.998     -18822.625     -656.02801      135751.99    
    245000   478.41316     -50706.686      14677.696     -18917.711      439.59495      135301.45    
    247500   475.44663     -50563.251      14790.144     -18767.932     -245.29006      135949.68    
    250000   471.33089     -50674.021      14393.957     -19422.095     -243.94876      135307.29    
    252500   477.08656     -50618.805      14685.735     -18869.239     -707.19961      136930       
    255000   471.42879     -50676.893      14766.358     -19049.064      1442.9227      135471.95    
    257500   466.15149     -50631.332      14842.832     -19115.781     -212.5794       136138.2     
    260000   474.67564     -50722.525      14333.267     -19411.658      626.38114      135888.5     
    262500   481.55396     -50704.394      14557.692     -18923.086      275.00796      135932.79    
    265000   473.28569     -50733.671      14599.669     -19206.116     -503.79788      135366.13    
    267500   480.94963     -50656.909      14517.464     -18937.444      787.91999      135930.7     
    270000   470.73721     -50794.941      14585.588     -19372.618      85.914396      135678.98    
    272500   469.48433     -50716.666      14511.334     -19413.408      854.51374      136320.07    
    275000   470.03526     -50770.065      14410.36      -19548.076      808.43729      135293.06    
    277500   471.32343     -50696.691      14502.283     -19336.706     -71.078321      135602.3     
    280000   472.5487      -50635.525      14426.615     -19307.383     -577.83618      136476.92    
    282500   477.55186     -50541.608      14684.459     -18776.676     -621.33299      136242.48    
    285000   475.39336     -50613.493      14394.427     -19215.795     -303.21307      136485.52    
    287500   470.68842     -50621.942      14490.849     -19296.102     -39.779705      135882.97    
    290000   465.5655      -50594.844      14476.524     -19466.56      -295.42915      136400.1     
    292500   472.99739     -50696.186      14450.284     -19328.327      353.08191      135369.96    
    295000   466.25251     -50689.71       14340.799     -19672.579      321.39322      135805.66    
    297500   465.04662     -50630.698      14464.068     -19533.428     -156.8816       136807.49    
    300000   468.56813     -50605.387      14631.205     -19215.027      417.54515      136469.47    
    302500   466.28035     -50664.933      14238.849     -19748.756     -69.921192      135904.77    
    305000   463.51686     -50867.947      14581.596     -19707.864     -371.1665       135032.13    
    307500   469.08802     -50948.73       14499.298     -19671.683      677.86174      135035.5     
    310000   469.65181     -50773.716      14436.761     -19539.041     -789.34271      135274.73    
    312500   474.0832      -50757.359      14395.552     -19405.396      82.34398       136239.74    
    315000   470.02591     -50921.748      14460.413     -19650.04      -310.62291      134738.12    
    317500   463.85313     -50800.284      14559.347     -19650.423     -102.72574      135079.92    
    320000   468.55336     -50804.619      14443.249     -19602.744      505.44983      135316.79    
    322500   468.42298     -50915.988      14434.322     -19727.703      104.66073      134861.42    
    325000   462.29541     -50885.308      14326.501     -20024.007     -499.15202      134926.42    
    327500   468.49109     -50815.499      14422.938     -19636.162     -379.82839      136080.14    
    330000   465.28699     -50857.005      14272.066     -19943.14       418.25935      135641.12    
    332500   465.92555     -50787.155      14062.633     -20059.884     -494.20424      135870.48    
    335000   462.45217     -50642.057      14322.54      -19779.111     -858.7336       135963.63    
    337500   469.04112     -50851.437      14371.132     -19704.233     -321.67063      135699.92    
    340000   465.71041     -50747.06       14328.736     -19761.381     -314.30213      135629.14    
    342500   468.60978     -50878.314      14172.616     -19945.054      366.1611       134821.58    
    345000   468.34571     -50759.281      14288.119     -19719.963     -89.596097      136223.95    
    347500   462.76914     -50813.353      14284.946     -19976.663      555.92423      136244.94    
    350000   460.82685     -50628.756      14294.578     -19851.904      457.14271      136690.11    
    352500   461.19443     -50802.271      14243.426     -20063.424      377.97107      135947.14    
    355000   464.67997     -50823.113      14069.427     -20133.598      473.79173      135116.49    
    357500   467.36062     -50747.74       14253.594     -19778.18       364.3072       136301.38    
    360000   459.19636     -50817.109      14510.655     -19882.497      453.52145      135867.16    
    362500   470.20587     -50665.669      14261.347     -19586.591      458.34342      135854.57    
    365000   464.60479     -50608.795      14329.636     -19661.76      -287.28669      137256.95    
    367500   461.7775      -50697.823      14315.603     -19865.944      1084.7313      136207.57    
    370000   463.93543     -50673.618      14358.66      -19721.5       -95.449837      136085.81    
    372500   460.24894     -50719.316      14193.182     -20064.53       250.28692      135917.9     
    375000   458.75387     -50660.395      14291.004     -19961.261      329.32557      136679.06    
    377500   463.09137     -50803.307      14199.919     -20040.119     -233.96672      135109.83    
    380000   466.04239     -50835.048      14107.363     -20058.868      194.69857      135975.96    
    382500   463.09995     -50667.008      14351.596     -19751.836      1479.4591      135112.22    
    385000   467.00997     -50737.55       14184.568     -19849.558      455.15551      135767.9     
    387500   467.97308     -50826.349      14177.033     -19911.444     -386.19639      135199.74    
    390000   458.5576      -50756.464      14430.962     -19924.392     -701.29973      135877.1     
    392500   465.51739     -50793.181      14166.566     -19976.576     -298.17623      135068.96    
    395000   466.34172     -50789.328      14205.53      -19904.276      501.7664       135722.86    
    397500   456.29292     -50763.291      14058.806     -20384.375     -339.44639      135773.82    
    400000   469.81411     -50935.051      14026.348     -20104.984      1271.3878      134788.46    
    402500   455.42917     -50870.307      13962.747     -20618.343     -543.64644      135376.35    
    405000   458.5176      -50773.618      14045.018     -20328.921      1218.9658      134922.23    
    407500   457.34703     -50749.09       14022.088     -20369.189      567.09948      134968.42    
    410000   454.8788      -50822.13       14214.099     -20338.5        696.30065      135475.89    
    412500   461.21468     -50854.753      14237.831     -20120.777     -643.40847      135587.87    
    415000   453.91602     -50983.947      14100.203     -20648.648      382.99358      134361.12    
    417500   460.06921     -50963.186      14114.589     -20393.421      944.1149       133863.24    
    420000   459.47888     -50922.933      13875.349     -20613.522      20.376415      134424.35    
    422500   455.41813     -50934.289      14020.492     -20624.975     -1120.0134      134223.46    
    425000   457.16437     -50983.161      14056.926     -20574.956      520.50639      134578.75    
    427500   453.72777     -50878.764      14064.245     -20586.156     -1446.8125      134861.13    
    430000   455.72246     -50934.508      14182.677     -20452.124     -785.27574      135247.77    
    432500   453.50265     -50973.101      14048.6       -20704.19      -253.21884      135352.73    
    435000   457.37303     -50985.12       14000.783     -20625.595     -456.15988      134790.16    
    437500   454.57729     -50952.662      14114.703     -20579.211     -902.45407      135236.54    
    440000   455.36219     -50872.702      13916.92      -20668.96       72.937536      134904.77    
    442500   455.51703     -50906.244      13964.544     -20649.341     -948.5735       135093.8     
    445000   453.00586     -50682.438      14139.666     -20340.229      315.00308      135043.05    
    447500   457.4229      -50791.168      14061.754     -20368.889      666.54297      135922.16    
    450000   458.5714      -50919.649      14122.775     -20395.27      -794.81116      135374.07    
    452500   456.65806     -50856.814      14101.209     -20422.435      247.01757      135307.37    
    455000   455.85358     -50945.088      14017.111     -20623.58      -306.12841      134609.45    
    457500   452.43039     -50980.532      14076.721     -20721.851      546.84719      134700.6     
    460000   458.34023     -50871.355      14074.365     -20403.655     -132.19775      135720.04    
    462500   450.42776     -50878.314      14059.865     -20708.117     -53.83341       134559.75    
    465000   454.20665     -50879.055      13751.626     -20881.938     -418.39582      135269.07    
    467500   451.26391     -50871.541      13933.57      -20797.732     -1182.4056      135395.36    
    470000   450.5597      -50930.429      14037.968     -20777.41      -260.92932      135152.97    
    472500   461.29027     -51081.361      13877.436     -20705.076     -106.74829      134523.08    
    475000   451.76212     -51045.283      13846.084     -21041.141     -798.51911      134643.22    
    477500   455.60759     -50980.361      13998.724     -20686.039      573.86452      134225.8     
    480000   456.36752     -51012.896      13914.301     -20775.817     -387.83042      134729.72    
    482500   449.08502     -51003.661      13749.997     -21191.357     -349.02089      134249.46    
    485000   451.77111     -50934.082      13893.656     -20882.046     -437.679        134821.52    
    487500   450.18669     -51060.691      13448.552     -21510.428     -455.31305      134800.92    
    490000   451.25854     -51053.508      14071.856     -20841.605      122.29338      134219.07    
    492500   448.08403     -51101.067      14095.125     -20979.437     -646.91523      133967.6     
    495000   450.40724     -51098.829      14078.761     -20910.47       391.47805      133944.63    
    497500   453.38213     -51027.172      14059.902     -20751.269      409.63953      133623.23    
    500000   453.31739     -51140.915      13927.018     -21000.212      321.18991      134593.77    
    502500   449.47187     -51170.043      14037.809     -21056.091      844.60094      134135       
    505000   451.05207     -51124.645      13848.28      -21143.703     -287.5178       134164.71    
    507500   447.9199      -51164.347      13952.807     -21190.905      473.6279       134201.46    
    510000   449.848       -51122.544      13979.376     -21053.572     -24.38736       134463.75    
    512500   452.38877     -51210.87       14154.944     -20875.455     -979.73936      133581.27    
    515000   448.67491     -51061.729      14016.193     -20997.898     -681.97132      134134.41    
    517500   451.67741     -51068.275      13753.095     -21160.152      681.64946      133900.63    
    520000   444.96798     -51165.605      13776.828     -21473.723     -644.1761       133652.52    
    522500   447.13121     -51092.695      13934.239     -21166.031     -925.12254      134140.01    
    525000   444.29585     -51194.048      13755.807     -21547.227     -253.24524      133489.99    
    527500   446.58697     -51119.829      13806.849     -21340.021      119.51239      133786.85    
    530000   444.99895     -51100.934      13956.131     -21228.642     -785.90482      134785.24    
    532500   447.37297     -51136.183      13727.384     -21407.726      401.10965      133999.84    
    535000   446.55998     -51200.339      13767.417     -21460.927     -827.42072      133849.01    
    537500   446.76021     -51167.654      13649.524     -21538.973      15.00806       133484.37    
    540000   440.91143     -51100.038      13924.216     -21405.857      323.58798      133828.75    
    542500   449.32459     -51148.711      13729.06      -21348.775     -617.42757      133939.83    
    545000   445.67474     -51133.415      13832.018     -21361.065      1412.8207      133621.29    
    547500   444.14678     -51258.191      13797.505     -21575.004     -87.196518      133545.59    
    550000   446.05707     -51250.993      13571.483     -21725.503      36.468545      133361.04    
    552500   445.99183     -51242.934      13668.373     -21622.887      164.56431      133521.63    
    555000   445.46666     -51224.176      13884.757     -21406.529      662.74709      133477.54    
    557500   445.28149     -51180.698      13872.775     -21381.655      523.41063      134146.21    
    560000   440.81595     -51065.761      13736.923     -21562.288     -550.72751      134653.39    
    562500   445.01363     -51146.071      13825.97      -21403.415      1092.4306      134316.44    
    565000   443.50187     -51134.023      13781.069     -21490.338     -440.62506      133471.46    
    567500   447.26712     -51016.952      13761.004     -21258.661     -203.59347      134584.67    
    570000   447.64691     -51221.722      13635.815     -21575.036     -400.85769      134296.41    
    572500   441.70832     -51216.25       13672.373     -21745.41       259.21085      133875.42    
    575000   447.41367     -51236.064      13508.799     -21724.736      560.80334      133612.7     
    577500   447.44404     -51212.997      13606.173     -21603.209     -375.5313       133170.54    
    580000   435.3293      -51090.058      13611.788     -21907.96       129.93516      134259.26    
    582500   438.42628     -51360.606      13551.747     -22127.78      -563.41548      132452.02    
    585000   444.15601     -51177.921      13600.185     -21691.724      50.351893      133875.89    
    587500   439.15374     -51279.195      13285.558     -22286.539      1134.5183      133237.99    
    590000   440.15298     -51281.687      13655.585     -21883.265     -131.83382      133303.77    
    592500   437.51969     -51290.656      13550.08      -22091.923     -2006.4388      133619.97    
    595000   443.48906     -51261.491      13553.254     -21846.08       450.61761      133606.6     
    597500   442.87475     -51122.136      13580.668     -21701.282     -773.50193      134589.37    
    600000   440.80127     -51199.972      13589.412     -21844.536      358.71268      133744.1     
    602500   437.16871     -51109.682      13382.274     -22091.309     -301.35433      133995.5     
    605000   443.81646     -51121.133      13515.289     -21731.976      157.45576      134122.16    
    607500   432.54251     -51003.935      13679.139     -21854.16      -350.5806       134329       
    610000   439.33112     -51142.728      13358.277     -22071.009      177.41986      134490.93    
    612500   439.06434     -51256.424      13463.951     -22088.573      60.533198      133469.23    
    615000   438.43808     -51168.212      13563.842     -21922.869      844.04128      133567.94    
    617500   443.3591      -51197.932      13588.546     -21751.876     -37.991071      133963.58    
    620000   438.92267     -51129.412      13624.523     -21806.056      10.747476      134738.91    
    622500   438.13944     -51234.07       13444.884     -22118.367     -240.83123      133465.73    
    625000   435.83258     -51247.336      13500.038     -22158.987      519.68087      133295.55    
    627500   438.59835     -51150.026      13446.891     -22015.902     -611.63494      133588.72    
    630000   439.50444     -51219.579      13493.518     -22006.42       488.19193      133418.44    
    632500   438.82468     -51205.237      13662.288     -21847.621     -8.7748315      133987.71    
    635000   440.89512     -51302.65       13401.283     -22131.986     -348.33431      133463.18    
    637500   436.41854     -51294.217      13318.676     -22366.273      115.26767      132539.34    
    640000   435.37797     -51071.301      13530.743     -21968.507     -218.144        133660.84    
    642500   436.14196     -51330.634      13171.017     -22560.242      889.48784      132988.81    
    645000   438.90615     -51168.729      13470.059     -22000.429      269.87616      133654.18    
    647500   437.7776      -51279.995      13261.549     -22360.568     -2.4835207      132444.83    
    650000   439.85426     -51271.121      13494.271     -22044.696     -505.72078      132667.58    
    652500   428.28746     -51207.019      13366.802     -22521.77       771.34114      133129.83    
    655000   440.01794     -51247.623      13098.808     -22410.808     -65.527433      133820.76    
    657500   435.73258     -51419.715      13218.929     -22616.053      1076.63        132575.52    
    660000   437.36377     -51236.96       13224.221     -22369.663      592.98271      133168.24    
    662500   435.92309     -51369.159      13370.09      -22407.522      225.60088      132695.02    
    665000   428.06246     -51363.261      13197.187     -22855.675     -470.46605      133018.04    
    667500   432.63764     -51382.093      13507.721     -22400.334     -946.03257      133171.49    
    670000   431.64861     -51303.421      13322.64      -22542.118      1327.7839      133167.03    
    672500   432.00427     -51340.735      13328.331     -22561.02       873.5168       133060.09    
    675000   437.05997     -51302.982      13393.872     -22276.899      1287.8462      133458.45    
    677500   428.12145     -51321.372      13383.555     -22625.309     -218.28188      133253.46    
    680000   432.17661     -51304.369      13166.826     -22679.995     -946.82734      133414.61    
    682500   429.86497     -51180.162      13307.965     -22497.328      452.3889       133585.64    
    685000   431.23083     -51300.779      13472.901     -22404.157      651.66571      133301.28    
    687500   430.60639     -51294.853      13439.701     -22453.766      310.78484      133044.57    
    690000   436.38702     -51307.158      13270.181     -22428.836      968.09991      133562.25    
    692500   434.7268      -51376.086      13220.795     -22606.53       932.65442      132417.97    
    695000   423.3578      -51424.681      13419.324     -22863.228      846.40827      132898.43    
    697500   430.23855     -51397.496      13142.458     -22866.808      21.775941      133293.98    
    700000   428.09462     -51399.063      13402.872     -22684.642     -441.67723      132715.96    
    702500   424.65078     -51539.143      13297.799     -23052.971     -788.86118      131857.07    
    705000   430.25305     -51354.958      13227.581     -22738.628     -357.70848      133333.5     
    707500   425.17752     -51407.323      13403.636     -22796.473      784.31967      132880.17    
    710000   426.78711     -51469.313      13427.901     -22776.628     -603.07837      133004.04    
    712500   431.12297     -51491.685      13085.552     -22986.27       1225.3321      132530.49    
    715000   429.31029     -51547.304      13319.74      -22872.535     -1208.6417      131820.33    
    717500   424.4467      -51430.197      13267.6       -22981.522     -694.54131      132753.5     
    720000   428.76196     -51394.643      13208.176     -22851.049     -139.49317      132591.11    
    722500   428.20608     -51356.213      13190.155     -22850.522     -102.71969      133194.02    
    725000   425.34514     -51390.866      13236.134     -22941.523      217.86817      132819.57    
    727500   426.32488     -51439.642      13238.789     -22952.602      429.28246      133127.5     
    730000   422.38252     -51487.172      13200.774     -23179.152     -709.41769      132438.15    
    732500   426.88507     -51568.064      13198.053     -23101.724      220.69514      131579.02    
    735000   422.25375     -51502.196      13177.935     -23221.62       584.05426      132801.39    
    737500   424.53464     -51520.928      13123.112     -23213.596     -113.23435      132277.6     
    740000   425.09804     -51519.495      13137.912     -23177.213      1622.5238      132021.06    
    742500   429.47158     -51459.271      13137.922     -22960.551      660.99249      132249.8     
    745000   428.88189     -51496.999      13137.253     -23020.039      112.45368      132355.84    
    747500   424.18716     -51540.78       13265.673     -23103.315      838.36893      131790.4     
    750000   431.44775     -51410.99       13087.94      -22891.57      -1210.7537      132593.29    
    752500   421.85016     -51502.478      13071.653     -23342.62       262.07839      132302.91    
    755000   429.12207     -51535.783      13312.364     -22875.121      1373.0027      132145.04    
    757500   426.95742     -51532.286      13005.093     -23256.319      366.05148      131113.39    
    760000   429.04651     -51499.673      13154.705     -22999.373      850.50385      132083.65    
    762500   421.45966     -51423.846      13143.98      -23205.628     -856.97607      133234.4     
    765000   422.24714     -51477.741      13008.566     -23366.771     -266.37573      132591.93    
    767500   427.29722     -51501.216      13010.575     -23207.613     -833.08914      132349.73    
    770000   420.86936     -51421.896      13076.115     -23292.656     -1322.3861      132782.35    
    772500   423.85529     -51524.013      13229.419     -23134.671      4.6886836      131552.83    
    775000   425.83244     -51501.484      12949.109     -23321.737      757.71187      132055.23    
    777500   421.22327     -51397.769      13094.236     -23237.75      -1132.4174      132757.53    
    780000   426.61655     -51616.724      13081.83      -23276.211     -213.85292      131945.04    
    782500   422.01823     -51553.536      12969.433     -23489.888      35.522344      131444.29    
    785000   419.31313     -51618.008      13099.01      -23521.534     -877.52751      131562.52    
    787500   426.58584     -51642.768      12867.375     -23517.809      1202.0694      131636.01    
    790000   420.32173     -51560.337      13043.907     -23482.892     -1052.5298      131562.68    
    792500   424.99417     -51606.316      12855.883     -23549.777     -922.31547      131319.74    
    795000   422.29911     -51534.637      12933.787     -23496.587      112.08683      131896.08    
    797500   422.63362     -51562.92       12876.866     -23569.827      244.33991      131820.6     
    800000   416.30763     -51646.792      12987.928     -23768.897      610.12037      131411.16    
    802500   422.85268     -51570.653      12984.734     -23461.857      141.60626      131739.24    
    805000   420.83517     -51670.766      12907.222     -23711.642      646.80032      130893.2     
    807500   412.84247     -51637.752      12917.763     -23953.96      -925.53477      131511.63    
    810000   419.64993     -51458.391      12948.324     -23500.557      214.11159      131880.13    
    812500   417.86013     -51493.659      12970.035     -23578.129     -68.415194      132153.2     
    815000   419.08319     -51641.165      12959.302     -23692.623      335.07044      131705.26    
    817500   414.72678     -51531.444      13012.227     -23685.792     -453.32909      132355.88    
    820000   420.0435      -51662.679      13004.476     -23634.617     -961.22961      131497.77    
    822500   418.86423     -51686.715      13014.653     -23690.654      382.51813      131302.48    
    825000   419.24898     -51612.969      13124.102     -23493.699      1720.562       131477.61    
    827500   418.78969     -51626.731      12787.568     -23860.421      73.694651      131078.35    
    830000   413.21693     -51600.372      12972.444     -23848.506     -176.23032      131711.08    
    832500   412.76769     -51567.046      12952.448     -23851.244      238.99503      131671.66    
    835000   412.2745      -51644.762      12915.95      -23983.098      42.102494      131252.58    
    837500   413.27937     -51631.809      12895.159     -23954.994      1241.97        130967.19    
    840000   416.34092     -51612.835      12940.961     -23780.716      167.48348      132341.4     
    842500   418.48821     -51608.798      13052.912     -23587.927      220.72415      131547.99    
    845000   418.25064     -51636.763      12844.646     -23832.655      142.07552      131558.76    
    847500   416.95096     -51757.004      12859.723     -23984.304      147.17299      130720.46    
    850000   416.50059     -51613.551      12986.409     -23730.273     -375.78803      131780.27    
    852500   416.76706     -51618.632      12903.174     -23809.059     -886.20951      131675.1     
    855000   412.54782     -51674.002      12903.25      -24015.262      85.498764      131419.81    
    857500   410.39594     -51620.925      12856.254     -24086.147      1201.4768      131059.58    
    860000   414.95115     -51525.553      12830.783     -23853.32       111.41652      131922.06    
    862500   412.95768     -51603.967      12889.429     -23944.388      900.35643      131443.79    
    865000   417.37638     -51689.392      12853.298     -23907.902     -860.52376      131305.34    
    867500   412.36262     -51759.801      12912.53      -24098.404      152.51704      131073.13    
    870000   410.97264     -51699.663      12691.4       -24309.111      80.202004      131651.77    
    872500   409.57351     -51736.618      12908.064     -24179.445      958.01428      131118.85    
    875000   415.10803     -51604.237      12859.348     -23897.828     -87.801197      131858.85    
    877500   414.0321      -51709.031      12757.088     -24143.364     -328.14922      131233.33    
    880000   410.06905     -51683          12988.098     -24028.069      31.179012      131385.18    
    882500   411.30656     -51642.331      12826.606     -24104.63      -93.002133      131075.69    
    885000   415.63864     -51690.013      12782.34      -24041.634      434.75148      131460.68    
    887500   412.82321     -51670.291      12604.389     -24300.561      803.20879      131300.38    
    890000   414.50722     -51639.867      12781.596     -24032.699     -1002.291       131950.02    
    892500   414.96304     -51681.528      12821.991     -24017.662      394.1933       131638.62    
    895000   412.47014     -51613.609      12934.617     -23926.28       449.35464      131410.7     
    897500   410.61967     -51551.455      12739.873     -24125.055      29.855622      131807.86    
    900000   410.84247     -51714.487      12730.211     -24289.78       22.953875      130901.62    
    902500   411.1648      -51766.837      12812.717     -24248.096     -888.46088      131079.83    
    905000   410.15259     -51698.641      12722.235     -24306.584     -903.55159      131167.43    
    907500   410.38029     -51739.971      12666.99      -24395.016     -264.20652      131299.91    
    910000   413.14886     -51811.472      12661.387     -24373.096      340.73447      130641.44    
    912500   406.86707     -51800.485      12739.032     -24509.145     -583.9078       131729.58    
    915000   405.8235      -51744.587      12801.543     -24428.06      -724.72767      131497.03    
    917500   409.93152     -51849.441      12597.131     -24590.396      204.54474      130715.74    
    920000   412.16289     -51753.011      12803.082     -24208.205     -1308.5496      130976.73    
    922500   405.46703     -51808.624      12743.193     -24563.198      1134.3285      130297.51    
    925000   409.34523     -51896.921      12711.977     -24544          457.98797      130439.27    
    927500   411.33774     -51922.847      12871.754     -24338.883      1011.5316      130393.03    
    930000   405.23069     -52021.625      12635.526     -24892.318     -726.50895      130368.92    
    932500   408.68976     -51911.885      12572.31      -24722.075      686.63908      130616.21    
    935000   405.52741     -51916.006      12549.668     -24861.945      369.95579      130039.15    
    937500   405.10293     -51835.125      12749.04      -24596.873     -255.99456      130717.16    
    940000   399.40557     -51891.825      12568.737     -25037.653      130.79772      130353.38    
    942500   405.13627     -51853.489      12689.087     -24673.998      178.12617      130927.31    
    945000   405.77404     -51771.34       12579.387     -24678.738     -850.01037      130736.19    
    947500   405.84635     -51768.882      12625.049     -24628.032     -487.54969      130960.04    
    950000   410.83759     -51933.667      12425.147     -24814.199      356.73472      130454.17    
    952500   404.49938     -51975.489      12615.241     -24892.624     -311.7834       130255.68    
    955000   407.13994     -51789.957      12513.991     -24713.898     -352.88827      130610.72    
    957500   406.71989     -51972.177      12493.265     -24931.868      1106.2955      130176.01    
    960000   407.61729     -51904.619      12684.401     -24641.076      416.8947       130347.19    
    962500   400.00527     -51800.685      12542.163     -24951.638      305.92805      130989.59    
    965000   404.16351     -51888.445      12497.673     -24935.161      316.85828      130593.41    
    967500   400.19313     -51895.347      12553.421     -25028.322     -142.98158      130440.19    
    970000   403.88263     -51805.708      12573.873     -24786.27      -286.03726      131022.81    
    972500   403.71543     -51765.51       12477.746     -24848.18       804.00669      131353.44    
    975000   401.0464      -51779.826      12365.958     -25069.746     -613.62868      131389.41    
    977500   402.36799     -51814.358      12381.467     -25041.5       -1389.8159      131028.45    
    980000   400.38367     -51776.669      12484.195     -24972.056      840.52999      130589.23    
    982500   401.24425     -51897.631      12469.005     -25077.428      275.9102       130965.49    
    985000   400.43179     -51898.861      12451.025     -25125.697     -616.85106      130326.77    
    987500   398.45304     -51851.305      12447.192     -25152.747      360.24973      130616.5     
    990000   405.26323     -51856.575      12390.519     -24971.111     -236.25203      130216.98    
    992500   404.08359     -51824.714      12248.843     -25123.118     -178.55154      131068.28    
    995000   403.12924     -51874.369      12399.868     -25055.883      672.46063      130714.55    
    997500   391.63294     -51912.065      12451.424     -25453.208     -1344.0162      130229.49    
   1000000   398.04826     -51845.856      12280.039     -25328.928      88.994137      131119.28    
   1002500   399.04502     -51940.316      12392.209     -25275.567      1040.9945      130333.24    
   1005000   397.15428     -51997.136      12490.969     -25301.254     -1205.1773      130582.65    
   1007500   401.45967     -51967.858      12417.952     -25191.003     -511.47369      130326.66    
   1010000   394.6942      -51943.637      12501.981     -25324.731     -710.42635      130898.97    
   1012500   404.55988     -51942.718      12418.743     -25054.188     -567.27776      130108.82    
   1015000   394.87069     -51961.78       12457.909     -25380.634      238.78237      130604.53    
   1017500   398.26477     -52030.414      12469.81      -25315.972     -753.65908      129861.31    
   1020000   397.7401      -52019.647      12491.829     -25301.952     -97.452831      130126.1     
   1022500   398.66696     -51971.631      12415.386     -25297.227     -1061.4157      130465.48    
   1025000   399.13699     -52035.396      12248.219     -25511.348     -612.79341      129807.17    
   1027500   398.52369     -51920.884      12342.312     -25324.679      321.91843      130305.79    
   1030000   402.17905     -51980.689      12432.158     -25163.898      846.26889      130044.92    
   1032500   392.25069     -51908.63       12209.147     -25669.954     -182.67541      130650.14    
   1035000   394.93191     -52025.793      12347.733     -25552.632      49.72482       130182.03    
   1037500   396.14884     -51937.684      12465.108     -25303.624     -198.94324      130037.23    
   1040000   401.76021     -51932.302      12436.622     -25126.028     -392.20582      130598.75    
   1042500   400.95008     -51979.365      12265.155     -25373.533      896.55207      130179.04    
   1045000   398.93398     -52045.359      12276.506     -25500.285      71.837796      130083.38    
   1047500   397.36356     -51908.307      12310.498     -25385.41      -102.95274      130520.52    
   1050000   395.86585     -52039.266      12378.521     -25501.914      351.36837      130400.98    
   1052500   394.04198     -52125.611      12278.469     -25753.545      448.81891      129136.88    
   1055000   395.23612     -52041.832      12379.294     -25526.231     -434.9709       129824.58    
   1057500   394.69709     -52072.992      12219.387     -25736.576     -616.66379      129538.48    
   1060000   390.62644     -51984.331      12208.244     -25804.652     -69.234916      129673.78    
   1062500   397.35506     -51975.272      12215.927     -25547.25       168.32228      129796.66    
   1065000   397.46285     -52072.534      12437.784     -25418.8        1221.154       129264.24    
   1067500   391.84022     -52094.109      12337.04      -25742.222     -646.10963      129499.52    
   1070000   395.11838     -52103.6        12225.003     -25746.501      1322.3809      128880.01    
   1072500   395.50684     -52087.324      12244.365     -25696.969      263.98479      129287.09    
   1075000   397.12882     -52026.509      12147.846     -25674.659     -417.887        129855.56    
   1077500   389.62416     -52040.837      12306.825     -25798.426     -162.54396      129386.16    
   1080000   394.17107     -52048.707      12096.4       -25854.092      1009.2058      129111.36    
   1082500   390.2018      -52015.94       12162.92      -25896.773      975.14838      129102.8     
   1085000   394.64082     -52127.89       12133.694     -25879.181      660.17523      129417.9     
   1087500   392.42563     -52082.795      12160.323     -25886.686     -105.36956      129628.67    
   1090000   388.54246     -51940.039      12295.353     -25747.79       138.06953      129706.91    
   1092500   392.58178     -51920.33       12187.676     -25691.284     -303.80954      130287.68    
   1095000   390.65294     -52058.681      12297.625     -25788.674      1287.546       129584.95    
   1097500   388.77633     -52048.942      12177.93      -25965.749     -556.96327      129696.85    
   1100000   387.18474     -52013.656      12078.564     -26086.756     -157.60962      130199.88    
   1102500   398.24603     -52125.787      12284.888     -25596.937      8.9036264      129190.96    
   1105000   389.7942      -52055.057      11960.154     -26153.235      1252.596       129282.57    
   1107500   390.96365     -52066.661      12192.199     -25890.967     -318.30023      129649.3     
   1110000   383.85626     -52049.902      12212.885     -26107.73       211.26574      129546.04    
   1112500   390.91708     -52002.58       12071.341     -25949.41       732.06059      130152.27    
   1115000   390.3982      -52054.032      12058.404     -26032.358      707.57619      129707.6     
   1117500   386.20483     -52046.006      12159.468     -26073.251     -443.65683      130003.86    
   1120000   385.19046     -52062.216      11967.05      -26318.159     -419.43086      129316.5     
   1122500   386.52842     -52203.008      12170.85      -26207.296     -1003.6592      129375.5     
   1125000   385.87862     -52156.197      11973.951     -26380.626      227.5948       129165.31    
   1127500   382.33995     -52122.159      12148         -26299.106      550.87221      129387.82    
   1130000   385.49801     -52139.832      11921.454     -26430.371     -596.2236       129536.4     
   1132500   384.40848     -51993.175      12030.808     -26213.329     -649.09756      129993.91    
   1135000   388.05592     -52088.898      12030.073     -26179.329     -483.96888      129743.51    
   1137500   383.09529     -52215.575      11954.227     -26559.278     -957.02848      129856.77    
   1140000   386.20036     -52066.716      12191.622     -26061.965      218.51887      129735.61    
   1142500   385.23251     -52220.191      11958.577     -26483.103     -185.45021      129264.04    
   1145000   386.16434     -52206.122      12099.444     -26294.838     -124.89561      129101.36    
   1147500   386.15551     -52204.144      12122.335     -26270.285     -226.22242      129082.89    
   1150000   378.44297     -52209.626      12039.322     -26634.633      57.258425      129103.43    
   1152500   383.4534      -52198.916      12105.677     -26378.361      710.524        128972.88    
   1155000   386.24578     -52224.945      12070.905     -26339.287     -328.26374      129225.6     
   1157500   385.99168     -52126.163      12008.675     -26311.824      295.65042      129092.06    
   1160000   385.17564     -52287.373      11951.091     -26559.805      81.37098       129009.37    
   1162500   384.74012     -52171.574      11917.724     -26492.95      -668.56359      129353.27    
   1165000   386.01609     -52303.246      11916.313     -26580.396      212.71823      128955.65    
   1167500   380.92676     -52194.572      12023.903     -26546.16       1037.6814      129177.19    
   1170000   384.36768     -52150.986      11960.785     -26442.623      782.57148      129165.15    
   1172500   385.55474     -52174.119      12011.313     -26372.769      617.54092      129541.81    
   1175000   389.89531     -52223.096      11886.337     -26391.475      1622.4164      129498.59    
   1177500   383.69914     -52168.062      12066.575     -26377.82       124.00298      129752.99    
   1180000   387.36849     -52149.866      11934.479     -26360.479      102.56715      129388.82    
   1182500   381.6595      -52190.94       12103.043     -26437.182      644.73617      128981.24    
   1185000   385.61191     -52230.341      11979.844     -26458.416     -886.86389      128969.08    
   1187500   382.98618     -52069.086      11961.79      -26409.129     -264.96529      129724.17    
   1190000   380.43658     -52170.698      11932.895     -26630.826     -57.799597      129279.96    
   1192500   380.81255     -52171.821      11829.851     -26721.546     -882.77491      129033.77    
   1195000   378.88654     -52059.895      11914.664     -26593.695     -129.4869       129813.2     
   1197500   373.05829     -52142.714      11895.364     -26904.27      -34.297136      129312.8     
   1200000   380.09246     -52268.832      11867.529     -26806.635     -46.098845      128953.57    
   1202500   382.26178     -52268.749      11986.177     -26610.315     -164.74962      129065.85    
   1205000   376.33181     -52291.915      11789.395     -27042.358     -756.70355      129197.9     
   1207500   376.16828     -52245.646      11820.897     -26970.437      46.43172       129521.27    
   1210000   376.92394     -52311.691      11826.807     -27003.544      510.73933      128928.89    
   1212500   382.13875     -52219.437      11837.592     -26713.988     -260.60793      129309.81    
   1215000   377.30869     -52373.886      11703.64      -27175.144      156.886        128849.51    
   1217500   380.05906     -52218.652      11786.835     -26838.344      79.116362      129140.34    
   1220000   376.28481     -52286.083      11806.775     -27020.827      1449.4008      128593.89    
   1222500   374.57025     -52337.484      11780.682     -27159.646     -1478.3531      128851.63    
   1225000   380.52284     -52318.532      11663.203     -27045.267     -439.78581      128448.56    
   1227500   376.24313     -52364.108      11711.806     -27195.313     -120.31495      128637.92    
   1230000   378.30444     -52321.754      11915.865     -26875.173     -550.96277      128688.64    
   1232500   376.24472     -52447.92       11730.922     -27259.952      782.90212      128352.55    
   1235000   380.3889      -52380.301      11778.346     -26996.684     -179.83795      128950.99    
   1237500   374.91378     -52305.575      11785.082     -27111.049     -8.9128782      128731.86    
   1240000   377.93916     -52307.868      11670.424     -27119.792     -643.93659      128532.26    
   1242500   375.26386     -52370.779      11724.203     -27224.611     -1005.3595      128775.37    
   1245000   374.8937      -52407.259      11573.288     -27425.246      1270.1354      127842.77    
   1247500   369.40038     -52312.106      11591.827     -27508.031     -327.68653      128842.71    
   1250000   372.95399     -52274.083      11871.7       -27063.035      229.34366      129169.17    
   1252500   378.35427     -52373.653      11735.812     -27105.343      577.45768      128381.21    
   1255000   371.93356     -52395.576      11665.817     -27426.908      478.14797      128462.82    
   1257500   380.50253     -52315.674      11677.169     -27029.17      -743.03645      129003.77    
   1260000   374.81232     -52350.796      11779.948     -27165.033      31.012859      128663.05    
   1262500   378.27227     -52511.093      11711.12      -27270.406     -340.95553      128178.8     
   1265000   370.61125     -52444.651      11703.774     -27485.321      1045.1036      127861.07    
   1267500   369.45559     -52437.586      11583.589     -27639.775      232.32612      128129.88    
   1270000   376.58188     -52438.07       11781.638     -27187.326     -867.90039      128645.78    
   1272500   374.52302     -52499.44       11743.607     -27360.365     -321.62449      127990.04    
   1275000   371.86748     -52320.943      11608.427     -27412.029      853.20633      128996.88    
   1277500   368.07606     -52357.225      11754.022     -27438.322      544.95424      128420.69    
   1280000   367.90387     -52419.772      11734.156     -27526.895      1284.9352      128159.44    
   1282500   372.70873     -52483.609      11593.406     -27559.626      38.448504      128124.28    
   1285000   370.99238     -52434.743      11581.619     -27583.936     -440.15352      128089.5     
   1287500   372.78293     -52502.775      11558.605     -27610.94       865.76299      127990.69    
   1290000   371.97713     -52420.068      11715.576     -27400.083      168.06754      128096.63    
   1292500   372.28549     -52434.714      11588.948     -27530.327     -216.27354      128511.89    
   1295000   375.48035     -52529.737      11569.468     -27530.562      317.81047      128610.37    
   1297500   368.54174     -52570.486      11523.818     -27865.131      262.89377      127902.82    
   1300000   369.09726     -52422.789      11518.574     -27702.809      996.30132      127984.83    
   1302500   365.87248     -52483.246      11616.07      -27781.111      633.79333      127798.88    
   1305000   370.64185     -52410.218      11503.488     -27650.079      48.325127      127769.38    
   1307500   369.17625     -52516.393      11508.876     -27803.286     -240.51872      128080.99    
   1310000   365.80761     -52513.211      11558.14      -27871.325     -48.193037      127729.49    
   1312500   363.48614     -52510.389      11553.001     -27956.673     -838.71001      128429.79    
   1315000   369.05245     -52513.529      11583.983     -27729.743     -232.33223      127915.64    
   1317500   369.05272     -52560.146      11583.141     -27777.193      348.71776      127590.53    
   1320000   367.39298     -52433.859      11578.695     -27714.715     -295.17303      128163.79    
   1322500   366.13526     -52412.729      11408.304     -27908.961     -23.570419      128506.35    
   1325000   368.62927     -52402.984      11466.311     -27752.006     -9.9431584      128018.37    
   1327500   365.35372     -52585.341      11345.362     -28172.468      82.604872      127390.02    
   1330000   369.38274     -52491.417      11435.669     -27844.132     -546.45146      128555.22    
   1332500   368.03592     -52445.42       11567.766     -27714.209      90.352118      128340.38    
   1335000   367.35177     -52459.716      11425.31      -27895.432     -953.08569      128264.55    
   1337500   363.28376     -52592.757      11463.105     -28136.177      625.95599      127195.69    
   1340000   370.5247      -52507.266      11425.89      -27828.916     -356.18547      128133.01    
   1342500   368.87894     -52540.43       11505.309     -27841.524     -396.01155      127922.66    
   1345000   366.7487      -52525.301      11380.664     -28027.232      513.48494      127914.09    
   1347500   368.23447     -52515.045      11432.003     -27912.495     -338.72269      127996.9     
   1350000   366.25062     -52608.269      11358.556     -28150.122      648.01697      127359.05    
   1352500   367.03163     -52510.858      11244.725     -28138.609      163.14956      127914.82    
   1355000   363.26039     -52516.601      11334.128     -28189.833      843.26745      127485.15    
   1357500   363.49894     -52575.918      11231.827     -28342.919     -361.41767      127516.58    
   1360000   361.63083     -52613.796      11391.85      -28287.59      -143.45713      127457.97    
   1362500   365.65402     -52636.338      11311.45      -28246.636      405.85984      127244.74    
   1365000   366.60271     -52687.558      11417.145     -28158.229      346.2928       127052.34    
   1367500   360.59622     -52697.213      11295.184     -28504.678     -254.62588      127172.34    
   1370000   360.66694     -52763.927      11322.012     -28542.034      632.8538       126879.69    
   1372500   368.17157     -52673.471      11562.711     -27942.463     -5.514554       127818.46    
   1375000   361.34511     -52610.574      11301.743     -28384.695      530.39252      127286.24    
   1377500   361.83086     -52680.733      11346.053     -28393.17      -636.81661      127281.26    
   1380000   360.58405     -52693.853      11241.263     -28555.674     -730.3874       127230.3     
   1382500   362.10075     -52742.002      11377.467     -28413.372      695.5908       126863.14    
   1385000   365.25148     -52575.23       11139.944     -28371.431      103.48955      127210.67    
   1387500   363.85997     -52566.464      11385.515     -28166.864     -30.019945      127910.92    
   1390000   358.17977     -52566.61       11294.428     -28461.259      531.5084       127577.46    
   1392500   355.52038     -52519.506      11268.425     -28535.277     -123.9438       127547.11    
   1395000   359.01129     -52614.222      11197.325     -28576.234     -241.97862      127440.39    
   1397500   358.40657     -52649.242      11261.673     -28568.534     -855.98506      127445.95    
   1400000   361.97422     -52675.367      11162.375     -28566.354     -152.9364       127202.58    
   1402500   363.72078     -52645.97       11308.485     -28328.378      6.786827       127194.14    
   1405000   355.90546     -52672.804      11091.396     -28851.83      -706.49258      127599.5     
   1407500   357.82509     -52621.919      11265.117     -28558.564     -1116.4002      127352.4     
   1410000   358.62041     -52569.624      11176.739     -28566.202     -352.68026      127909.42    
   1412500   360.30727     -52607.609      11332.457     -28388.135      542.64348      127555.45    
   1415000   359.24931     -52633.309      11184.527     -28599.606      727.62994      127803.71    
   1417500   362.26108     -52694.192      11163.199     -28574.094     -697.77542      127494.71    
   1420000   359.39036     -52609.063      11321.472     -28433.369     -784.7175       127850.68    
   1422500   359.22305     -52693.949      11214.996     -28630.715     -77.099083      127738.03    
   1425000   354.33448     -52630.991      11174.054     -28783.548      96.376964      127796.02    
   1427500   352.98808     -52568.194      11249.032     -28693.929     -76.056364      127765.23    
   1430000   357.49446     -52662.553      11180.734     -28695.408      1021.5162      127152.54    
   1432500   357.33028     -52673.877      11179.399     -28713.939     -639.59272      127568.03    
   1435000   356.45724     -52812.273      11136.245     -28926.714     -190.00905      126847.75    
   1437500   355.22186     -52661.189      11171.909     -28784.152      294.63803      127511.26    
   1440000   358.1444      -52620.006      11215.838     -28594.511      29.805769      127844.47    
   1442500   353.2098      -52712.602      11207.962     -28871.477      3.1236578      127097.61    
   1445000   356.21398     -52707.685      11066.397     -28900.675      570.85837      126990.35    
   1447500   357.69731     -52696.309      11104.23      -28798.412      21.571452      127972.97    
   1450000   357.08598     -52731.52       11145.151     -28814.568      420.0405       127310.19    
   1452500   356.38577     -52750.637      11117.76      -28886.12      -91.832402      127055.29    
   1455000   355.23745     -52652.784      11093.91      -28853.189     -449.33517      127214.03    
   1457500   352.66987     -52730.848      11103.656     -29013.34      -200.8256       127173.33    
   1460000   356.3678      -52792.029      11192.681     -28853.235     -1170.2777      126637.26    
   1462500   354.71638     -52799.616      11017.16      -29095.408      472.75308      126518.25    
   1465000   354.25117     -52841.151      11154.7       -29016.041      11.486814      126734.37    
   1467500   353.80768     -52794.187      11228.749     -28910.891      678.85472      126228.93    
   1470000   352.85431     -52784.259      11192.53      -28971.281     -224.41246      126927       
   1472500   353.39267     -52758.308      11176.114     -28942.49      -656.14642      126901.13    
   1475000   351.45271     -52766.598      11093.454     -29102.826     -507.89378      127234.81    
   1477500   354.66671     -52792.282      11068.13      -29038.881      180.8868       127183.15    
   1480000   352.09196     -52717.27       11018         -29106.088      321.4384       127064.35    
   1482500   353.59819     -52699.074      10779.771     -29272.248      1152.2393      127431.55    
   1485000   353.64704     -52833.806      10975.077     -29209.927     -146.36508      127171.47    
   1487500   350.14554     -52852.62       10977.286     -29351.77       517.47459      126694.19    
   1490000   349.80859     -52837.587      10950.559     -29375.516     -782.90584      126966.15    
   1492500   354.60848     -52832.455      10994.314     -29154.952     -445.04855      127244.9     
   1495000   350.34416     -52802.563      10866.311     -29405.583      572.58615      126525.66    
   1497500   349.22191     -52811.987      10993.422     -29328.035      831.05863      126608.68    
   1500000   351.82067     -52765.969      11016.477     -29166.014     -33.483653      126578.75    
   1502500   346.80037     -52726.209      10901.451     -29420.839      158.22005      127256.91    
   1505000   348.55374     -52752.553      11073.961     -29211.961      472.96793      127522.12    
   1507500   346.26298     -52793.156      10734.039     -29674.42      -756.26689      126937.71    
   1510000   351.86682     -52783.974      10913.006     -29285.839      181.57365      126550.06    
   1512500   351.70391     -52828.62       10865.098     -29384.22      -28.909486      126567.08    
   1515000   346.58901     -52731.368      10881.112     -29453.896     -591.35683      126457.97    
   1517500   348.25804     -52799.959      11007.994     -29335.911     -1066.8662      127002.07    
   1520000   350.13551     -52750.913      11008.191     -29219.516     -491.5917       127270.4     
   1522500   348.2405      -52896.55       10890.308     -29550.815      80.387129      126470.98    
   1525000   350.49046     -52782.759      10843.901     -29402.957      1354.6708      127213.97    
   1527500   346.27453     -52793.517      10952.524     -29455.882      743.77527      127010.99    
   1530000   346.09082     -52846.754      10982.807     -29485.406     -686.59052      127000.59    
   1532500   348.33979     -52739.553      10814.023     -29466.551     -81.646825      127114.89    
   1535000   342.40237     -52856.261      10852.07      -29757.575     -14.865551      126433.98    
   1537500   345.54942     -52816.011      10790.772     -29666.062      791.6349       126913.79    
   1540000   348.85536     -52854.263      10786.849     -29589.995      342.3904       126264.66    
   1542500   339.7544      -52836.91       10807.498     -29877.505     -601.72099      126750.89    
   1545000   343.43729     -52797.092      10725.41      -29788.049     -888.45111      126756.91    
   1547500   343.34766     -52898.544      10790.97      -29827.147     -57.786044      126114.24    
   1550000   346.64269     -52905.151      10785.306     -29721.566     -281.13679      126557.69    
   1552500   343.67415     -52884.27       10818.845     -29773.321      909.06254      126493.71    
   1555000   338.94741     -52844.375      10864.468     -29856.863      209.85904      126575.39    
   1557500   351.40715     -52917.065      10701.436     -29646.94      -528.66544      126500.58    
   1560000   345.32879     -52920.083      10811.114     -29757.685      373.2402       126354.45    
   1562500   343.3704      -52862.567      10798.308     -29783.019     -343.13937      127043.97    
   1565000   342.85272     -52821.061      10747.057     -29811.28       552.17381      126475.3     
   1567500   339.19128     -52762.616      10857.803     -29773.046      349.94454      127132.69    
   1570000   346.54535     -52893.812      10674.63      -29824.384     -270.43608      126686.76    
   1572500   339.2119      -52915.554      10753.334     -30029.715      178.7126       126466.16    
   1575000   340.72503     -52777.395      10813.084     -29777.687      199.02751      127184.69    
   1577500   342.27397     -52859.113      10639.224     -29977.865      44.036166      126695.48    
   1580000   338.41902     -52889.234      10805.247     -29979.841      1265.1001      126611.67    
   1582500   343.72677     -52827.792      10735.919     -29797.888      276.37786      126413.45    
   1585000   343.95127     -52884.329      10607.67      -29974.643     -619.96221      126624.6     
   1587500   340.24619     -52866.746      10511.332     -30185.917     -536.51099      126783.89    
   1590000   341.59879     -52940.515      10592.633     -30130.006     -843.93188      126477.02    
   1592500   343.65333     -53010.223      10662.46      -30056.404      175.33434      126061.6     
   1595000   337.20132     -52985.149      10724.18      -30200.376      189.86539      126136.49    
   1597500   339.05512     -52918.552      10722.391     -30069.264     -286.91227      126325.43    
   1600000   336.8571      -52974.224      10705.377     -30220.567     -382.84876      126266.2     
   1602500   338.78873     -52981.794      10573.258     -30291.167     -12.798368      126194.79    
   1605000   342.26494     -52922.823      10836.303     -29844.819     -852.08024      125892.92    
   1607500   337.57751     -52948.011      10762.75      -30111.214      454.71549      126164.83    
   1610000   338.42198     -53003.882      10597.893     -30301.738     -11.813424      126313.29    
   1612500   339.29787     -52980.183      10758.461     -30086.144     -690.72135      126217.46    
   1615000   337.28421     -52958.304      10779.516     -30115.231     -433.09401      126705.52    
   1617500   337.21461     -53022.929      10720.246     -30241.616     -84.371584      125933.73    
   1620000   334.28259     -53046.802      10801.206     -30289.397     -363.39182      126010.67    
   1622500   336.12288     -52993.238      10646.652     -30324.567     -484.06333      126514.26    
   1625000   338.32774     -53123.482      10600.304     -30422.298      149.65075      125426.85    
   1627500   338.98974     -52986.426      10686.483     -30175.385     -883.7249       125638.11    
   1630000   339.26543     -52985.569      10491.735     -30359.416      1097.4773      126047.58    
   1632500   334.3372      -52929.325      10531.499     -30439.675     -120.45875      126324.44    
   1635000   336.96021     -53024.445      10636.293     -30336.184      1049.0651      126171.69    
   1637500   335.06498     -53039.598      10541.321     -30514.095     -169.7964       125875.88    
   1640000   333.63849     -52922.666      10565.297     -30424.208      426.79854      125834.01    
   1642500   337.96719     -52911.343      10528.403     -30294.955     -977.9583       126664.93    
   1645000   333.765       -52964.495      10556.884     -30469.926      1463.0538      126462.89    
   1647500   335.777       -53005.64       10381.308     -30614.683      92.37354       125940.57    
   1650000   336.96658     -52961.974      10512.692     -30397.086      35.070367      125913.85    
   1652500   330.37362     -52990.062      10451.794     -30721.881      105.22816      125918.61    
   1655000   331.08943     -53083.047      10351.672     -30889.385      66.561319      125660.53    
   1657500   334.76329     -53040.709      10615.222     -30452.096      193.30448      125332.52    
   1660000   335.15885     -52951.827      10605.158     -30359.13      -1032.2775      126647.53    
   1662500   330.12428     -52963.202      10524.849     -30630.883     -209.20305      126508.41    
   1665000   331.88198     -53024.915      10565.317     -30589.261      525.83063      125956.44    
   1667500   331.93463     -52951.432      10556.931     -30522.282      552.16602      125942.77    
   1670000   334.75763     -53028.275      10542.988     -30512.098     -319.53875      126116.06    
   1672500   332.48893     -53019.347      10554.225     -30573.077     -147.29918      126116.1     
   1675000   333.21227     -52950.349      10512.285     -30520.147      403.50216      126097.01    
   1677500   334.62458     -53124.465      10426.206     -30729.829      56.448974      125381.57    
   1680000   327.62752     -53109.538      10578.48      -30812.89      -467.87132      125444.53    
   1682500   334.11947     -53073.102      10542.745     -30579.993     -344.86713      125773.5     
   1685000   332.30373     -53185.673      10523.74      -30776.512     -428.22141      125748.86    
   1687500   333.56359     -53113.432      10485.125     -30697.825      1026.2002      125084.3     
   1690000   328.6915      -53168.851      10395.269     -31017.359      172.24726      125322.94    
   1692500   326.14574     -53026.943      10345.084     -31016.689      514.75537      125619.98    
   1695000   333.28412     -53157.426      10432.065     -30804.874     -43.302887      125515.38    
   1697500   327.15156     -53157.516      10338.455     -31117.916     -286.09516      125762.29    
   1700000   328.93426     -53082.786      10384.402     -30933.478      166.18643      125485.13    
   1702500   329.6698      -53147.306      10342.943     -31013.149      40.142005      125550.71    
   1705000   327.81471     -53128.294      10396.611     -31006.819     -270.0992       125561.83    
   1707500   328.54001     -53170.889      10397.588     -31022.496      626.04461      125181.73    
   1710000   329.79335     -53104.469      10549.494     -30759.342     -180.66985      125892.05    
   1712500   327.71545     -53174.949      10237.794     -31215.841     -408.94922      125553.25    
   1715000   327.9607      -53086.79       10228.952     -31127.753     -526.57241      125749.62    
   1717500   327.66993     -53108.821      10362.919     -31026.217      44.226518      125603.63    
   1720000   328.41016     -53157.17       10222.732     -31188.277     -337.74667      125172       
   1722500   327.72936     -53156.38       10197.654     -31236.915      509.95099      125636.16    
   1725000   327.98533     -53188.842      10390.261     -31067.616     -175.66545      125317.17    
   1727500   324.29193     -53110.141      10415.975     -31095.302     -1181.73        125601.09    
   1730000   325.80574     -53263.809      10396.704     -31214.095      266.04707      125119.66    
   1732500   325.41274     -53226.393      10254.438     -31333.002     -178.5168       125163.56    
   1735000   325.86088     -53233.88       10413.619     -31165.279      904.97479      124871.13    
   1737500   328.22948     -53157.22       10278.647     -31138.874      336.25966      125425.48    
   1740000   328.57724     -53188.709      10351.422     -31085.15       1243.5167      125398.14    
   1742500   324.75475     -53272.638      10228.266     -31428.953      218.88118      125043.75    
   1745000   324.52146     -53160.371      10408.894     -31144.402      710.46991      125362.22    
   1747500   326.94646     -53238.393      10191.392     -31353.192      312.29293      125018.3     
   1750000   328.84419     -53244.833      10222.989     -31260.159     -648.00777      124910.28    
   1752500   324.17926     -53251.188      10266.404     -31389.949      23.134708      125278.06    
   1755000   327.62617     -53242.014      10232.061     -31291.833     -134.22807      125189.84    
   1757500   327.88574     -53213.121      10200.033     -31285.685     -869.8061       125619.33    
   1760000   324.5129      -53191.86       10281.867     -31303.224      904.63872      125633.61    
   1762500   321.7199      -53160.17       10176.694     -31476.604      14.817951      125203.27    
   1765000   327.36021     -53287.125      10172.557     -31405.96      -593.41656      125234.46    
   1767500   322.24617     -53283.767      10240.782     -31517.29      -802.85         124961.05    
   1770000   320.39005     -53211.652      10218.285     -31534.059      663.18748      125240.46    
   1772500   323.74507     -53339.325      10126.904     -31633.115      822.42556      124595.34    
   1775000   325.66412     -53224.747      10079.382     -31497.42       28.327927      124987.39    
   1777500   321.83635     -53205.017      10118.864     -31575.116     -394.23027      125122.67    
   1780000   321.49035     -53224.69       10184.188     -31541.841     -543.46184      125128.5     
   1782500   322.10771     -53264.048      10223.198     -31520.107     -530.84534      125281.51    
   1785000   323.41319     -53226.857      10157.895     -31501.527     -556.11452      125955.66    
   1787500   324.49914     -53312.406      10007.844     -31698.285     -551.62079      125038.94    
   1790000   318.97305     -53212.34       10137.897     -31665.817      1234.2254      125798.73    
   1792500   320.31308     -53264.532      10034.085     -31773.892     -863.48033      125534.81    
   1795000   317.83002     -53217.704      10188.363     -31661.598      418.52597      125083.06    
   1797500   321.77979     -53230.038      10244.286     -31476.738      168.11372      125215.88    
   1800000   318.85417     -53163.437      10143.651     -31615.412     -752.44681      125105.76    
   1802500   320.99183     -53230.184      10132.663     -31616.69       1537.2253      125057.98    
   1805000   324.08572     -53249.993      10162.523     -31495.981      424.82466      125224.49    
   1807500   318.48937     -53175.001      10060.274     -31723.401      11.664435      125321.36    
   1810000   318.93946     -53255.293      10266.6       -31581.268     -201.8225       125273.87    
   1812500   317.41375     -53309.98       10073.161     -31883.964      49.734357      124885.6     
   1815000   318.56673     -53256.91       10047.619     -31815.197     -597.76467      125064.71    
   1817500   315.85411     -53270.815      10251.689     -31722.054      460.18976      124531.04    
   1820000   319.13927     -53311.153      10125.745     -31770.837      539.41018      124889.88    
   1822500   316.28011     -53341.53       9907.9718     -32121.25       775.24482      124909.69    
   1825000   320.61773     -53242.294      10110.516     -31664.327      517.15211      124855.42    
   1827500   317.8564      -53306.055      10056.948     -31880.42      -298.19467      125199.2     
   1830000   316.20093     -53209.166      10132.209     -31767.481     -210.01763      125472.45    
   1832500   316.01664     -53382.3        9998.4035     -32081.012      1239.7124      124545.13    
   1835000   315.90963     -53312.14       10043.028     -31970.054      743.91799      124739.21    
   1837500   316.63275     -53395.565      9933.6669     -32136.977      301.02161      125148.38    
   1840000   318.41513     -53348.113      9990.7336     -31968.709      45.017447      124920.99    
   1842500   316.86363     -53413.853      10099.24      -31981.434      350.47947      124293.28    
   1845000   321.36962     -53410.294      9977.9159     -31938.034     -565.91217      124651.41    
   1847500   318.66092     -53326.175      9949.8142     -31978.898      298.07454      125114.89    
   1850000   315.63868     -53347.272      9844.9231     -32212.982      624.37043      124810.34    
   1852500   320.76824     -53365.486      9898.1194     -31994.533      787.91739      124842.42    
   1855000   315.0707      -53338.122      9981.9539     -32087.116      967.06365      124375.8     
   1857500   313.97046     -53423.451      9945.6313     -32248.12      -305.62733      124508.8     
   1860000   314.9042      -53427.52       9920.8058     -32243.617      620.50904      124390.12    
   1862500   317.90949     -53399.609      9881.1986     -32147.824     -150.31036      124603.56    
   1865000   312.03814     -53334.226      9959.4041     -32214.235     -560.2553       124551.7     
   1867500   317.24828     -53434.275      10045.055     -32042.284      192.27927      124095.28    
   1870000   307.08593     -53475.546      9961.5986     -32530.485     -232.44207      124311.03    
   1872500   314.33538     -53358.002      9976.4828     -32138.767     -288.61183      124809.97    
   1875000   314.33011     -53433.056      9837.7597     -32352.733     -303.75209      124162.77    
   1877500   311.23681     -53408.56       10032.529     -32244.105     -29.696564      124415.26    
   1880000   312.54416     -53408.807      9881.8512     -32348.27      -852.60509      124582.31    
   1882500   310.13625     -53441.506      9848.339      -32500.604      66.647574      124633.7     
   1885000   314.04083     -53353.946      9734.8196     -32386.91      -649.17761      125028.07    
   1887500   307.75013     -53449.735      9830.6973     -32611.819     -251.99899      124557.73    
   1890000   313.38983     -53400.827      9871.3661     -32320.528     -7.574991       124758.61    
   1892500   312.64517     -53431.869      9724.3017     -32525.269     -467.07895      124553.5     
   1895000   310.86951     -53388.506      9815.6728     -32454.044     -260.91222      124856.1     
   1897500   313.84344     -53432.875      9811.3601     -32396.358      555.90483      124239.97    
   1900000   309.96606     -53507.82       9748.1719     -32673.173     -375.34949      124091.96    
   1902500   313.70872     -53529.392      9787.3052     -32521.749     -42.878421      124313.46    
   1905000   310.64639     -53384.175      9815.3796     -32457.987     -600.13597      124574.11    
   1907500   311.88531     -53428.298      9913.2842     -32359.893     -1388.5643      124324.63    
   1910000   307.19385     -53435.448      9770.2932     -32677.832     -359.23792      124654.16    
   1912500   312.91657     -53468.74       9838.1148     -32438.62      -253.38967      124456.01    
   1915000   305.49274     -53454.222      9697.5644     -32830.178      432.98063      123886.48    
   1917500   308.71662     -53400.175      9823.5522     -32534.836     -280.0401       124800.51    
   1920000   306.50521     -53529.379      9847.9233     -32718.764     -983.73277      124670.07    
   1922500   307.20528     -53477.579      9804.3142     -32685.534     -567.43465      124410.68    
   1925000   307.55145     -53423.623      9720.7766     -32702.733     -633.24537      124807.95    
   1927500   310.436       -53351.165      9614.4977     -32633.384     -150.82576      124848.51    
   1930000   307.70151     -53423.005      9739.2997     -32678.225      1503.5683      124266.47    
   1932500   308.57079     -53464.813      9696.2276     -32732.014      545.80584      124338.47    
   1935000   302.89257     -53425.971      9753.8653     -32838.626     -249.1895       124506.98    
   1937500   304.84796     -53409.844      9792.1047     -32714.321     -451.18603      124703.43    
   1940000   302.2011      -53569.658      9684.6796     -33076.23      -446.90927      123825       
   1942500   308.5055      -53548.515      9724.1078     -32790.171      264.76687      123922.47    
   1945000   302.98138     -53474.502      9745.2238     -32892.622     -405.21567      124325.23    
   1947500   306.84162     -53460.517      9742.7028     -32743.09      -279.72305      124290.81    
   1950000   305.74309     -53506.331      9685.9837     -32884.914     -529.5241       124004.62    
   1952500   303.83479     -53470.005      9794.2176     -32808.607     -156.90225      124122.14    
   1955000   303.96648     -53533.165      9715.1417     -32946.133     -0.19825716     123753.36    
   1957500   304.08049     -53534.774      9537.6634     -33121.143      28.718188      124043.18    
   1960000   309.60559     -53507.505      9605.5373     -32828.385      473.07871      124188.96    
   1962500   303.69942     -53469.757      9634.9626     -32972.456     -182.7883       124678.32    
   1965000   301.56791     -53452.22       9530.5311     -33135.588     -631.08105      124851.98    
   1967500   304.783       -53476.949      9636.6042     -32939.251      502.50483      124479.42    
   1970000   307.34473     -53497.739      9463.6313     -33041.389      544.58964      124076.62    
   1972500   301.2921      -53521.213      9555.1807     -33189.797      709.05323      124101.02    
   1975000   298.73442     -53582.714      9611.161      -33286.797     -42.587464      123972.65    
   1977500   299.20752     -53527.442      9629.6183     -33196.147      787.72269      123904.38    
   1980000   297.70187     -53575.078      9509.4303     -33417.822      98.18013       123822.52    
   1982500   300.89806     -53565.3        9649.8019     -33153.356     -137.04894      124051.78    
   1985000   302.45738     -53653.081      9548.7702     -33286.396      777.90368      123783.65    
   1987500   301.40867     -53559.015      9443.0682     -33335.541      81.51846       123854.9     
   1990000   305.15168     -53594.89       9596.5902     -33084.019     -116.61974      124071.65    
   1992500   296.21559     -53698.289      9640.2929     -33463.331      408.03199      123290.72    
   1995000   299.22185     -53630.78       9542.8987     -33385.691      275.07389      123894.41    
   1997500   300.68833     -53578.948      9520.0692     -33304.238     -28.116326      123758.71    
   2000000   301.04989     -53635.255      9459.3113     -33408.37      -88.514591      123940.66    
Loop time of 26569.4 on 8 procs for 2000000 steps with 12000 atoms

Performance: 3.252 ns/day, 7.380 hours/ns, 75.275 timesteps/s, 903.295 katom-step/s
100.0% CPU use with 8 MPI tasks x 1 OpenMP threads

MPI task timing breakdown:
Section |  min time  |  avg time  |  max time  |%varavg| %total
---------------------------------------------------------------
Pair    | 20924      | 21460      | 22345      | 273.9 | 80.77
Bond    | 668.97     | 691.96     | 706.87     |  43.7 |  2.60
Kspace  | 1375.1     | 2261.5     | 2793.3     | 839.0 |  8.51
Neigh   | 1075.8     | 1076.1     | 1076.5     |   0.8 |  4.05
Comm    | 759.92     | 768.38     | 774.39     |  16.0 |  2.89
Output  | 0.035773   | 0.038041   | 0.05245    |   2.8 |  0.00
Modify  | 171.06     | 249.63     | 263.99     | 188.5 |  0.94
Other   |            | 61.47      |            |       |  0.23

Nlocal:           1500 ave        1532 max        1470 min
Histogram: 2 0 0 1 1 1 1 1 0 1
Nghost:        12863.6 ave       12922 max       12797 min
Histogram: 1 1 0 1 1 1 0 1 0 2
Neighs:         834757 ave      889886 max      789811 min
Histogram: 2 1 1 0 0 0 2 1 0 1

Total # of neighbors = 6678056
Ave neighs/atom = 556.50467
Ave special neighs/atom = 8.1666667
Neighbor list builds = 54992
Dangerous builds = 0


write_data   system_equilibrated_cooling.data
System init for write_data ...
PPPM initialization ...
  using 12-bit tables for long-range coulomb (src/kspace.cpp:342)
  G vector (1/distance) = 0.19323977
  grid = 15 15 15
  stencil order = 5
  estimated absolute RMS force accuracy = 0.028187469
  estimated relative force accuracy = 8.4885726e-05
  using double precision FFTW3
  3d grid and FFT values/proc = 2197 512
Generated 0 of 2346 mixed pair_coeff terms from geometric mixing rule
WARNING: Not all mixed pair coeffs generated from mixing. Use write_data with 'pair ij' option to store all pair coeffs. (src/write_data.cpp:326)


Total wall time: 7:22:49
