LAMMPS (2 Aug 2023)
OMP_NUM_THREADS environment is not set. Defaulting to 1 thread. (src/comm.cpp:98)
  using 1 OpenMP thread(s) per MPI task
# ------------------------------- Initialization Section --------------------

include         system.in.init
units real
atom_style      full
bond_style      harmonic
angle_style     harmonic
dihedral_style  harmonic
improper_style  harmonic
#pair_style      lj/cut/coul/cut ${cutoff}  # for non-period sims
pair_style      lj/cut/coul/long   12
kspace_style    pppm 0.0001
special_bonds lj 0.0 0.0 0.5 coul 0.0 0.0 1.0 angle yes dihedral yes

# ------------------------------- Atom Definition Section -------------------

read_data       system_equilibrated_cooling.data
Reading data file ...
  orthogonal box = (0.070822989 0.070822989 0.070822989) to (49.929177 49.929177 49.929177)
  2 by 2 by 2 MPI processor grid
  reading atoms ...
  12000 atoms
  reading velocities ...
  12000 velocities
  scanning bonds ...
  3 = max bonds/atom
  scanning angles ...
  6 = max angles/atom
  scanning dihedrals ...
  10 = max dihedrals/atom
  scanning impropers ...
  2 = max impropers/atom
  reading bonds ...
  11500 bonds
  reading angles ...
  19500 angles
  reading dihedrals ...
  20500 dihedrals
  reading impropers ...
  2500 impropers
Finding 1-2 1-3 1-4 neighbors ...
  special bond factors lj:    0        0        0.5     
  special bond factors coul:  0        0        1       
     4 = max # of 1-2 neighbors
     7 = max # of 1-3 neighbors
    14 = max # of 1-4 neighbors
  39000 = # of 1-3 neighbors before angle trim
  39000 = # of 1-3 neighbors after angle trim
  56500 = # of 1-4 neighbors before dihedral trim
  41000 = # of 1-4 neighbors after dihedral trim
    15 = max # of special neighbors
  special bonds CPU = 0.003 seconds
  read_data CPU = 0.327 seconds

# ------------------------------- Settings Section --------------------------

include         system.in.settings
#     atom_id      mass
mass 1            15.999400000
mass 2           15.999400000
mass 3           15.999400000
mass 4           15.999400000
mass 5           15.999400000
mass 6            14.006700000
mass 7           14.006700000
mass 8           14.006700000
mass 9           14.006700000
mass 10           14.006700000
mass 11           14.006700000
mass 12            12.011000000
mass 13          12.011000000
mass 14          13.019000000
mass 15          14.027000000
mass 16          15.035000000
mass 17          16.043000000
mass 18         14.027000000
mass 19          12.011000000
mass 20            1.008000000
mass 21             1.008000000
mass 22           1.000000000
mass 23            32.060000000
mass 24         63.546000000
mass 25         63.546000000
mass 26           55.847000000
mass 27         65.370000000
mass 28         24.305000000
mass 29         40.080000000
mass 30           39.948000000
mass 31            18.998400000
mass 32           35.453000000
mass 33           79.904000000
mass 34         12.011000000
mass 35         15.999400000
mass 36          22.989800000
mass 37          35.453000000
mass 38         12.011000000
mass 39        35.453000000
mass 40          1.008000000
mass 41        32.060000000
mass 42        12.011000000
mass 43        15.999400000
mass 44         12.011000000
mass 45        35.453000000
mass 46         18.998400000
mass 47         12.011000000
mass 48        13.019000000
mass 49         15.999400000
mass 50        12.011000000
mass 51        15.999400000
mass 52        14.006700000
mass 53         15.035000000
mass 54            126.904470000
mass 55        35.453000000
mass 56            10.811000000
mass 57           78.960000000
mass 58          1.008000000
mass 59        35.453000000
mass 60        79.904000000
mass 61        15.999400000
mass 62         14.006700000
mass 63         12.011000000
mass 64         12.011000000
mass 65         14.006700000
mass 66         14.006700000
mass 67         15.999400000
mass 68           28.080000000
mass 69            30.973800000

#           atom_i       atom_j       epsilon                  sigma
pair_coeff 1      1      3.057142739336137782E-01 2.760065475311210825E+00
pair_coeff 1      2     3.550276087952778381E-01 2.692123523613648928E+00
pair_coeff 2     2     4.122954462841457168E-01 2.625854035428913935E+00
pair_coeff 1      3     2.204919358198741963E-01 2.914561468303898728E+00
pair_coeff 2     3     1.353372555548385814E-01 3.161567388722811067E+00
pair_coeff 3     3     2.030610329881481768E-01 2.954841833242532800E+00
pair_coeff 1      4     2.779220672123761116E-01 2.804259278747785356E+00
pair_coeff 2     4     3.227523716320707670E-01 2.735229449503375765E+00
pair_coeff 3     4     2.030610329881481768E-01 2.954841833242532800E+00
pair_coeff 4     4     2.526564247385237327E-01 2.849160707521389835E+00
pair_coeff 1      5     1.928839685607480758E-01 3.016736863519489109E+00
pair_coeff 2     5     1.183915722290306144E-01 3.272402037762298210E+00
pair_coeff 3     5     1.776356026680076250E-01 3.058429331874637391E+00
pair_coeff 4     5     1.776356026680076250E-01 3.058429331874637391E+00
pair_coeff 5     5     1.553937103090970162E-01 3.165648283720967182E+00
pair_coeff 1      6      1.694765154967038112E-01 3.064144913095461664E+00
pair_coeff 2     6      9.205677104655286824E-02 3.392227199027124662E+00
pair_coeff 3     6      1.381226695164660401E-01 3.170419479686534814E+00
pair_coeff 4     6      1.381226695164660401E-01 3.170419479686534814E+00
pair_coeff 5     6      1.208282223360083590E-01 3.281564455306036798E+00
pair_coeff 6      6      1.529146624006174071E-01 3.136473222385702364E+00
pair_coeff 1      7     1.295153862773237297E-01 3.204601223054668324E+00
pair_coeff 2     7     7.949613606375653674E-02 3.476187697824344891E+00
pair_coeff 3     7     1.192765986091082336E-01 3.248890049401691016E+00
pair_coeff 4     7     1.192765986091082336E-01 3.248890049401691016E+00
pair_coeff 5     7     1.043418826661619003E-01 3.362785957386363656E+00
pair_coeff 6      7     8.113226830524199185E-02 3.485920696025768706E+00
pair_coeff 7     7     7.006222102981565780E-02 3.572200188298519929E+00
pair_coeff 1      8     9.498357859321329699E-02 3.374577969603924643E+00
pair_coeff 2     8     3.498417334104661491E-02 3.985801065571819457E+00
pair_coeff 3     8     8.747468933197311003E-02 3.421215940224123120E+00
pair_coeff 4     8     8.747468933197311003E-02 3.421215940224123120E+00
pair_coeff 5     8     7.652191525386708992E-02 3.541153054130216749E+00
pair_coeff 6      8     1.529146624006174071E-01 3.136473222385702364E+00
pair_coeff 7     8     5.138200694820247577E-02 3.761674922833770918E+00
pair_coeff 8     8     1.529146624006174071E-01 3.136473222385702364E+00
pair_coeff 1      9     1.582887664986303011E-01 3.099220950402574282E+00
pair_coeff 2     9     9.715714619416199183E-02 3.361876561464794300E+00
pair_coeff 3     9     1.457753106303604218E-01 3.142053380689358466E+00
pair_coeff 4     9     1.457753106303604218E-01 3.142053380689358466E+00
pair_coeff 5     9     1.275226702872701012E-01 3.252203929734818200E+00
pair_coeff 6      9     9.915676463161025855E-02 3.371289499249087385E+00
pair_coeff 7     9     8.562737496854166963E-02 3.454731772227725983E+00
pair_coeff 8     9     6.279712962164887835E-02 3.637975809775669589E+00
pair_coeff 9     9     1.046505125905587974E-01 3.341126193637144581E+00
pair_coeff 1      10     1.356655582513865699E-01 3.179918240687398701E+00
pair_coeff 2     10     4.996808371058240883E-02 3.755883439744826191E+00
pair_coeff 3     10     1.249405711687586185E-01 3.223865938686866883E+00
pair_coeff 4     10     1.249405711687586185E-01 3.223865938686866883E+00
pair_coeff 5     10     1.092966648039405131E-01 3.336884579737899870E+00
pair_coeff 6      10     1.529146624006174071E-01 3.136473222385702364E+00
pair_coeff 7     10     7.338919800609181032E-02 3.544685827501989461E+00
pair_coeff 8     10     1.529146624006174071E-01 3.136473222385702364E+00
pair_coeff 9     10     8.969347936648916497E-02 3.428122195097171421E+00
pair_coeff 10     10     1.529146624006174071E-01 3.136473222385702364E+00
pair_coeff 1      11     1.468798483487794293E-01 3.138102939733744545E+00
pair_coeff 2     11     5.409850998504587422E-02 3.706494309430008460E+00
pair_coeff 3     11     1.352683199952084137E-01 3.181472734127216206E+00
pair_coeff 4     11     1.352683199952084137E-01 3.181472734127216206E+00
pair_coeff 5     11     1.183312681445888304E-01 3.293005202223091565E+00
pair_coeff 6      11     1.529146624006174071E-01 3.136473222385702364E+00
pair_coeff 7     11     7.945564380901472268E-02 3.498073904350435193E+00
pair_coeff 8     11     1.529146624006174071E-01 3.136473222385702364E+00
pair_coeff 9     11     9.710765810444493829E-02 3.383043060841536942E+00
pair_coeff 10     11     1.529146624006174071E-01 3.136473222385702364E+00
pair_coeff 11     11     1.529146624006174071E-01 3.136473222385702364E+00
pair_coeff 1      12      1.423703976828447626E-01 3.143928959384971744E+00
pair_coeff 2     12      1.653354984123153737E-01 3.066537799135407028E+00
pair_coeff 3     12      1.294276342571315797E-01 3.194269134171567437E+00
pair_coeff 4     12      1.294276342571315797E-01 3.194269134171567437E+00
pair_coeff 5     12      1.015029251390483361E-01 3.367009660356621747E+00
pair_coeff 6      12      1.006900148654086141E-01 3.351458328501519368E+00
pair_coeff 7     12      1.006900148654086141E-01 3.351458328501519368E+00
pair_coeff 8     12      1.006900148654086141E-01 3.351458328501519368E+00
pair_coeff 9     12      1.006900148654086141E-01 3.351458328501519368E+00
pair_coeff 10     12      1.006900148654086141E-01 3.351458328501519368E+00
pair_coeff 11     12      1.006900148654086141E-01 3.351458328501519368E+00
pair_coeff 12      12      6.630154972997068241E-02 3.581179283634555510E+00
pair_coeff 1      13    2.260833879260638890E-02 4.280821861878790990E+00
pair_coeff 2     13    2.625518382604388745E-02 4.175444871815595427E+00
pair_coeff 3     13    2.055303526600580841E-02 4.349365815492619802E+00
pair_coeff 4     13    2.055303526600580841E-02 4.349365815492619802E+00
pair_coeff 5     13    1.611860721985387823E-02 4.584571963747981371E+00
pair_coeff 6      13    1.598951752723829639E-02 4.563397031920107594E+00
pair_coeff 7     13    1.598951752723829639E-02 4.563397031920107594E+00
pair_coeff 8     13    1.598951752723829639E-02 4.563397031920107594E+00
pair_coeff 9     13    1.598951752723829639E-02 4.563397031920107594E+00
pair_coeff 10     13    1.598951752723829639E-02 4.563397031920107594E+00
pair_coeff 11     13    1.598951752723829639E-02 4.563397031920107594E+00
pair_coeff 12      13    1.052864867392752299E-02 4.876188605638604123E+00
pair_coeff 13    13    1.671943466637953492E-03 6.639493148644640463E+00
pair_coeff 1      14    8.326657659937299061E-02 3.721998163273249283E+00
pair_coeff 2     14    9.669791731433396986E-02 3.630377213810442427E+00
pair_coeff 3     14    7.569688781761180207E-02 3.781594305716371451E+00
pair_coeff 4     14    7.569688781761180207E-02 3.781594305716371451E+00
pair_coeff 5     14    5.936487660854102705E-02 3.986096356968000354E+00
pair_coeff 6      14    5.888943890049144064E-02 3.967685626525647269E+00
pair_coeff 7     14    5.888943890049144064E-02 3.967685626525647269E+00
pair_coeff 8     14    5.888943890049144064E-02 3.967685626525647269E+00
pair_coeff 9     14    5.888943890049144064E-02 3.967685626525647269E+00
pair_coeff 10     14    5.888943890049144064E-02 3.967685626525647269E+00
pair_coeff 11     14    5.888943890049144064E-02 3.967685626525647269E+00
pair_coeff 12      14    3.877704325548127218E-02 4.239645007324696735E+00
pair_coeff 13    14    6.157772581688245907E-03 5.772765628111153013E+00
pair_coeff 14    14    2.267909407489697785E-02 5.019181773522026546E+00
pair_coeff 1      15    1.731972553779473067E-01 3.351793382524915543E+00
pair_coeff 2     15    2.011348918568659772E-01 3.269285418082499728E+00
pair_coeff 3     15    1.574520503435884455E-01 3.405461854969619839E+00
pair_coeff 4     15    1.574520503435884455E-01 3.405461854969619839E+00
pair_coeff 5     15    1.234809225305322361E-01 3.589623316644059425E+00
pair_coeff 6      15    1.224919962470180784E-01 3.573043790873992709E+00
pair_coeff 7     15    1.224919962470180784E-01 3.573043790873992709E+00
pair_coeff 8     15    1.224919962470180784E-01 3.573043790873992709E+00
pair_coeff 9     15    1.224919962470180784E-01 3.573043790873992709E+00
pair_coeff 10     15    1.224919962470180784E-01 3.573043790873992709E+00
pair_coeff 11     15    1.224919962470180784E-01 3.573043790873992709E+00
pair_coeff 12      15    8.065754277175206377E-02 3.817953007077415251E+00
pair_coeff 13    15    1.280837226587758920E-02 5.198583336794016851E+00
pair_coeff 14    15    4.717327178141728083E-02 4.519953937695086132E+00
pair_coeff 15    15    9.812197803026967424E-02 4.070381293353582564E+00
pair_coeff 1      16    2.517150719017874350E-01 3.216286733597559344E+00
pair_coeff 2     16    2.923180488930291476E-01 3.137114409660223480E+00
pair_coeff 3     16    2.288318835470794788E-01 3.267785491497223305E+00
pair_coeff 4     16    2.288318835470794788E-01 3.267785491497223305E+00
pair_coeff 5     16    1.794601723072659361E-01 3.444501654585188533E+00
pair_coeff 6      16    1.780229229119614787E-01 3.428592407594721170E+00
pair_coeff 7     16    1.780229229119614787E-01 3.428592407594721170E+00
pair_coeff 8     16    1.780229229119614787E-01 3.428592407594721170E+00
pair_coeff 9     16    1.780229229119614787E-01 3.428592407594721170E+00
pair_coeff 10     16    1.780229229119614787E-01 3.428592407594721170E+00
pair_coeff 11     16    1.780229229119614787E-01 3.428592407594721170E+00
pair_coeff 12      16    1.172230999498745652E-01 3.663600408719620116E+00
pair_coeff 13    16    1.861496210673063006E-02 4.988414472922134912E+00
pair_coeff 14    16    6.855895881485152277E-02 4.337220773235620719E+00
pair_coeff 15    16    1.426049200441300291E-01 3.905823498176049124E+00
pair_coeff 16    16    2.072539060975635561E-01 3.747918462531858008E+00
pair_coeff 1      17    3.038575184606040480E-01 3.199953592715625295E+00
pair_coeff 2     17    3.528713488103634721E-01 3.121183326439165739E+00
pair_coeff 3     17    2.762341076914582305E-01 3.251190826523163935E+00
pair_coeff 4     17    2.762341076914582305E-01 3.251190826523163935E+00
pair_coeff 5     17    2.166351113098009262E-01 3.427009578955020341E+00
pair_coeff 6      17    2.149001375898457467E-01 3.411181123260212722E+00
pair_coeff 7     17    2.149001375898457467E-01 3.411181123260212722E+00
pair_coeff 8     17    2.149001375898457467E-01 3.411181123260212722E+00
pair_coeff 9     17    2.149001375898457467E-01 3.411181123260212722E+00
pair_coeff 10     17    2.149001375898457467E-01 3.411181123260212722E+00
pair_coeff 11     17    2.149001375898457467E-01 3.411181123260212722E+00
pair_coeff 12      17    1.415057111515590771E-01 3.644995692608442361E+00
pair_coeff 13    17    2.247102705950117241E-02 4.963082006288297876E+00
pair_coeff 14    17    8.276085709262456791E-02 4.315195237643504100E+00
pair_coeff 15    17    1.721453419435647891E-01 3.885988710192354478E+00
pair_coeff 16    17    2.501862805523388245E-01 3.728885557404626905E+00
pair_coeff 17    17    3.020120399909287934E-01 3.709949306321822071E+00
pair_coeff 1      18   1.871351497334000635E-01 3.303836737441132154E+00
pair_coeff 2     18   2.173210425425619319E-01 3.222509276900889397E+00
pair_coeff 3     18   1.701228633940000401E-01 3.356737334425898833E+00
pair_coeff 4     18   1.701228633940000401E-01 3.356737334425898833E+00
pair_coeff 5     18   1.334179394271841901E-01 3.538263858666045536E+00
pair_coeff 6      18   1.323494301847202848E-01 3.521921548721142159E+00
pair_coeff 7     18   1.323494301847202848E-01 3.521921548721142159E+00
pair_coeff 8     18   1.323494301847202848E-01 3.521921548721142159E+00
pair_coeff 9     18   1.323494301847202848E-01 3.521921548721142159E+00
pair_coeff 10     18   1.323494301847202848E-01 3.521921548721142159E+00
pair_coeff 11     18   1.323494301847202848E-01 3.521921548721142159E+00
pair_coeff 12      18   8.714838644978782634E-02 3.763326663382849269E+00
pair_coeff 13    18   1.383911457826323375E-02 5.124203269895830637E+00
pair_coeff 14    18   5.096949867344095775E-02 4.455283535302380749E+00
pair_coeff 15    18   1.060182565293115581E-01 4.012143267090165999E+00
pair_coeff 16    18   1.540809235512614617E-01 3.849939924851243589E+00
pair_coeff 17    18   1.859985845053877540E-01 3.830388928193292131E+00
pair_coeff 18   18   1.145499809843573136E-01 3.954738496352121491E+00
pair_coeff 1      19    1.916455257379301724E-01 3.213399033460031529E+00
pair_coeff 2     19    2.225589661339335279E-01 3.134297793337560201E+00
pair_coeff 3     19    1.742232052163001366E-01 3.264851553886924496E+00
pair_coeff 4     19    1.742232052163001366E-01 3.264851553886924496E+00
pair_coeff 5     19    1.366336104191038237E-01 3.441409054725308003E+00
pair_coeff 6      19    1.355393477120732659E-01 3.425514091640016634E+00
pair_coeff 7     19    1.355393477120732659E-01 3.425514091640016634E+00
pair_coeff 8     19    1.355393477120732659E-01 3.425514091640016634E+00
pair_coeff 9     19    1.355393477120732659E-01 3.425514091640016634E+00
pair_coeff 10     19    1.355393477120732659E-01 3.425514091640016634E+00
pair_coeff 11     19    1.355393477120732659E-01 3.425514091640016634E+00
pair_coeff 12      19    8.924885764206048899E-02 3.660311093966183371E+00
pair_coeff 13    19    1.417266821800791839E-02 4.983935691534572499E+00
pair_coeff 14    19    5.219797768503835894E-02 4.333326657424202644E+00
pair_coeff 15    19    1.085735338300921060E-01 3.902316706653073286E+00
pair_coeff 16    19    1.577946187139902257E-01 3.744553443938634096E+00
pair_coeff 17    19    1.904815667437584348E-01 3.725537627251366946E+00
pair_coeff 18   19    1.173108919424925706E-01 3.846483307649072980E+00
pair_coeff 19    19    1.201383470349284138E-01 3.741191446582464053E+00
pair_coeff 1      20     9.300420140216696108E-02 2.559445618447809156E+00
pair_coeff 2     20     1.080062726770026210E-01 2.496442138227286112E+00
pair_coeff 3     20     8.454927400196994569E-02 2.600427123263571172E+00
pair_coeff 4     20     8.454927400196994569E-02 2.600427123263571172E+00
pair_coeff 5     20     6.630731279946860957E-02 2.741053705029336207E+00
pair_coeff 6      20     6.577627494299018163E-02 2.728393499060382865E+00
pair_coeff 7     20     6.577627494299018163E-02 2.728393499060382865E+00
pair_coeff 8     20     6.577627494299018163E-02 2.728393499060382865E+00
pair_coeff 9     20     6.577627494299018163E-02 2.728393499060382865E+00
pair_coeff 10     20     6.577627494299018163E-02 2.728393499060382865E+00
pair_coeff 11     20     6.577627494299018163E-02 2.728393499060382865E+00
pair_coeff 12      20     4.331183156556572822E-02 2.915407359639444529E+00
pair_coeff 13    20     6.877894405717501110E-03 3.969663348839890027E+00
pair_coeff 14    20     2.533130481764387168E-02 3.451458661424102736E+00
pair_coeff 15    20     5.268995854924014149E-02 3.108162818448523712E+00
pair_coeff 16    20     7.657659860592054557E-02 2.982505691119483604E+00
pair_coeff 17    20     9.243934043658488808E-02 2.967359751198966222E+00
pair_coeff 18   20     5.693013587912872792E-02 3.063691980262590153E+00
pair_coeff 19    20     5.830227959007599353E-02 2.979827888172235539E+00
pair_coeff 20     20     2.829367882355780447E-02 2.373408142809749322E+00
pair_coeff 1      21      0.000000000000000000E+00 0.000000000000000000E+00
pair_coeff 2     21      0.000000000000000000E+00 0.000000000000000000E+00
pair_coeff 3     21      0.000000000000000000E+00 0.000000000000000000E+00
pair_coeff 4     21      0.000000000000000000E+00 0.000000000000000000E+00
pair_coeff 5     21      0.000000000000000000E+00 0.000000000000000000E+00
pair_coeff 6      21      0.000000000000000000E+00 0.000000000000000000E+00
pair_coeff 7     21      0.000000000000000000E+00 0.000000000000000000E+00
pair_coeff 8     21      0.000000000000000000E+00 0.000000000000000000E+00
pair_coeff 9     21      0.000000000000000000E+00 0.000000000000000000E+00
pair_coeff 10     21      0.000000000000000000E+00 0.000000000000000000E+00
pair_coeff 11     21      0.000000000000000000E+00 0.000000000000000000E+00
pair_coeff 12      21      0.000000000000000000E+00 0.000000000000000000E+00
pair_coeff 13    21      0.000000000000000000E+00 0.000000000000000000E+00
pair_coeff 14    21      0.000000000000000000E+00 0.000000000000000000E+00
pair_coeff 15    21      0.000000000000000000E+00 0.000000000000000000E+00
pair_coeff 16    21      0.000000000000000000E+00 0.000000000000000000E+00
pair_coeff 17    21      0.000000000000000000E+00 0.000000000000000000E+00
pair_coeff 18   21      0.000000000000000000E+00 0.000000000000000000E+00
pair_coeff 19    21      0.000000000000000000E+00 0.000000000000000000E+00
pair_coeff 20     21      0.000000000000000000E+00 0.000000000000000000E+00
pair_coeff 21      21      0.000000000000000000E+00 0.000000000000000000E+00
pair_coeff 1      22    0.000000000000000000E+00 0.000000000000000000E+00
pair_coeff 2     22    0.000000000000000000E+00 0.000000000000000000E+00
pair_coeff 3     22    0.000000000000000000E+00 0.000000000000000000E+00
pair_coeff 4     22    0.000000000000000000E+00 0.000000000000000000E+00
pair_coeff 5     22    0.000000000000000000E+00 0.000000000000000000E+00
pair_coeff 6      22    0.000000000000000000E+00 0.000000000000000000E+00
pair_coeff 7     22    0.000000000000000000E+00 0.000000000000000000E+00
pair_coeff 8     22    0.000000000000000000E+00 0.000000000000000000E+00
pair_coeff 9     22    0.000000000000000000E+00 0.000000000000000000E+00
pair_coeff 10     22    0.000000000000000000E+00 0.000000000000000000E+00
pair_coeff 11     22    0.000000000000000000E+00 0.000000000000000000E+00
pair_coeff 12      22    0.000000000000000000E+00 0.000000000000000000E+00
pair_coeff 13    22    0.000000000000000000E+00 0.000000000000000000E+00
pair_coeff 14    22    0.000000000000000000E+00 0.000000000000000000E+00
pair_coeff 15    22    0.000000000000000000E+00 0.000000000000000000E+00
pair_coeff 16    22    0.000000000000000000E+00 0.000000000000000000E+00
pair_coeff 17    22    0.000000000000000000E+00 0.000000000000000000E+00
pair_coeff 18   22    0.000000000000000000E+00 0.000000000000000000E+00
pair_coeff 19    22    0.000000000000000000E+00 0.000000000000000000E+00
pair_coeff 20     22    0.000000000000000000E+00 0.000000000000000000E+00
pair_coeff 21      22    0.000000000000000000E+00 0.000000000000000000E+00
pair_coeff 22    22    0.000000000000000000E+00 0.000000000000000000E+00
pair_coeff 1      23      3.731714874568097806E-01 3.021498329079459921E+00
pair_coeff 2     23      4.333660288663451210E-01 2.947120929208018492E+00
pair_coeff 3     23      3.392468067789179420E-01 3.069878160802191225E+00
pair_coeff 4     23      3.392468067789179420E-01 3.069878160802191225E+00
pair_coeff 5     23      2.660524812168876263E-01 3.235891839220214727E+00
pair_coeff 6      23      2.639217367579247409E-01 3.220946106087509531E+00
pair_coeff 7     23      2.639217367579247409E-01 3.220946106087509531E+00
pair_coeff 8     23      2.639217367579247409E-01 3.220946106087509531E+00
pair_coeff 9     23      2.639217367579247409E-01 3.220946106087509531E+00
pair_coeff 10     23      2.639217367579247409E-01 3.220946106087509531E+00
pair_coeff 11     23      2.639217367579247409E-01 3.220946106087509531E+00
pair_coeff 12      23      1.737850588051431666E-01 3.441721286142719993E+00
pair_coeff 13    23      2.759696924716207450E-02 4.686300458613273712E+00
pair_coeff 14    23      1.016397168676915763E-01 4.074545090238809841E+00
pair_coeff 15    23      2.114139996840987690E-01 3.669274586167817986E+00
pair_coeff 16    23      3.072571214561132247E-01 3.520932774360979955E+00
pair_coeff 17    23      3.709050306349177539E-01 3.503052561617904459E+00
pair_coeff 18   23      2.284273523866607036E-01 3.616775497184223198E+00
pair_coeff 19    23      2.339329629063890137E-01 3.517771551839822930E+00
pair_coeff 20     23      1.135259918695059600E-01 2.801875799210098883E+00
pair_coeff 21      23      0.000000000000000000E+00 0.000000000000000000E+00
pair_coeff 22    23      0.000000000000000000E+00 0.000000000000000000E+00
pair_coeff 23      23      4.555134350088204109E-01 3.307694050845144673E+00
pair_coeff 1      24   2.223093289799977224E-01 2.528643669394098126E+00
pair_coeff 2     24   8.188055467646591923E-02 2.986646248124879222E+00
pair_coeff 3     24   2.047347528503646874E-01 2.563590501331129090E+00
pair_coeff 4     24   2.047347528503646874E-01 2.563590501331129090E+00
pair_coeff 5     24   1.790997547608397245E-01 2.653461953861128819E+00
pair_coeff 6      24   5.583840364210079787E-01 2.182297559899140094E+00
pair_coeff 7     24   5.583840364210079787E-01 2.182297559899140094E+00
pair_coeff 8     24   5.583840364210079787E-01 2.182297559899140094E+00
pair_coeff 9     24   1.469768559452463708E-01 2.726013321860754957E+00
pair_coeff 10     24   5.583840364210079787E-01 2.182297559899140094E+00
pair_coeff 11     24   5.583840364210079787E-01 2.182297559899140094E+00
pair_coeff 12      24   3.676802214070164498E-01 2.331880049283297840E+00
pair_coeff 13    24   5.838741162631456982E-02 3.175123618634094314E+00
pair_coeff 14    24   2.150410044373349261E-01 2.760639115110234521E+00
pair_coeff 15    24   4.472924585510560935E-01 2.486054939218036886E+00
pair_coeff 16    24   6.500695009260647472E-01 2.385548453460561547E+00
pair_coeff 17    24   7.847305442853571567E-01 2.373434017715752464E+00
pair_coeff 18   24   4.832879194471943474E-01 2.450485069368524726E+00
pair_coeff 19    24   4.949362401301840020E-01 2.383406620605556636E+00
pair_coeff 20     24   2.401890134458197767E-01 1.898363561004745348E+00
pair_coeff 21      24   0.000000000000000000E+00 0.000000000000000000E+00
pair_coeff 22    24   0.000000000000000000E+00 0.000000000000000000E+00
pair_coeff 23      24   9.637380899683938296E-01 2.241072162744267793E+00
pair_coeff 24   24   2.038998270244088307E+00 1.518400541713947227E+00
pair_coeff 1      25   1.222674138853568487E-01 2.793586526663335956E+00
pair_coeff 2     25   4.503330433195999044E-02 3.299577089353393333E+00
pair_coeff 3     25   1.126016118096603430E-01 2.832194971194489597E+00
pair_coeff 4     25   1.126016118096603430E-01 2.832194971194489597E+00
pair_coeff 5     25   9.850267617010251275E-02 2.931482855034457380E+00
pair_coeff 6      25   5.583840364210079787E-01 2.182297559899140094E+00
pair_coeff 7     25   5.583840364210079787E-01 2.182297559899140094E+00
pair_coeff 8     25   5.583840364210079787E-01 2.182297559899140094E+00
pair_coeff 9     25   8.083547442600935717E-02 3.011635913604119530E+00
pair_coeff 10     25   5.583840364210079787E-01 2.182297559899140094E+00
pair_coeff 11     25   5.583840364210079787E-01 2.182297559899140094E+00
pair_coeff 12      25   3.676802214070164498E-01 2.331880049283297840E+00
pair_coeff 13    25   5.838741162631456982E-02 3.175123618634094314E+00
pair_coeff 14    25   2.150410044373349261E-01 2.760639115110234521E+00
pair_coeff 15    25   4.472924585510560935E-01 2.486054939218036886E+00
pair_coeff 16    25   6.500695009260647472E-01 2.385548453460561547E+00
pair_coeff 17    25   7.847305442853571567E-01 2.373434017715752464E+00
pair_coeff 18   25   4.832879194471943474E-01 2.450485069368524726E+00
pair_coeff 19    25   4.949362401301840020E-01 2.383406620605556636E+00
pair_coeff 20     25   2.401890134458197767E-01 1.898363561004745348E+00
pair_coeff 21      25   0.000000000000000000E+00 0.000000000000000000E+00
pair_coeff 22    25   0.000000000000000000E+00 0.000000000000000000E+00
pair_coeff 23      25   9.637380899683938296E-01 2.241072162744267793E+00
pair_coeff 24   25   2.038998270244088307E+00 1.518400541713947227E+00
pair_coeff 25   25   2.038998270244088307E+00 1.518400541713947227E+00
pair_coeff 1      26     0.000000000000000000E+00 0.000000000000000000E+00
pair_coeff 2     26     0.000000000000000000E+00 0.000000000000000000E+00
pair_coeff 3     26     0.000000000000000000E+00 0.000000000000000000E+00
pair_coeff 4     26     0.000000000000000000E+00 0.000000000000000000E+00
pair_coeff 5     26     0.000000000000000000E+00 0.000000000000000000E+00
pair_coeff 6      26     0.000000000000000000E+00 0.000000000000000000E+00
pair_coeff 7     26     0.000000000000000000E+00 0.000000000000000000E+00
pair_coeff 8     26     0.000000000000000000E+00 0.000000000000000000E+00
pair_coeff 9     26     0.000000000000000000E+00 0.000000000000000000E+00
pair_coeff 10     26     0.000000000000000000E+00 0.000000000000000000E+00
pair_coeff 11     26     0.000000000000000000E+00 0.000000000000000000E+00
pair_coeff 12      26     0.000000000000000000E+00 0.000000000000000000E+00
pair_coeff 13    26     0.000000000000000000E+00 0.000000000000000000E+00
pair_coeff 14    26     0.000000000000000000E+00 0.000000000000000000E+00
pair_coeff 15    26     0.000000000000000000E+00 0.000000000000000000E+00
pair_coeff 16    26     0.000000000000000000E+00 0.000000000000000000E+00
pair_coeff 17    26     0.000000000000000000E+00 0.000000000000000000E+00
pair_coeff 18   26     0.000000000000000000E+00 0.000000000000000000E+00
pair_coeff 19    26     0.000000000000000000E+00 0.000000000000000000E+00
pair_coeff 20     26     0.000000000000000000E+00 0.000000000000000000E+00
pair_coeff 21      26     0.000000000000000000E+00 0.000000000000000000E+00
pair_coeff 22    26     0.000000000000000000E+00 0.000000000000000000E+00
pair_coeff 23      26     0.000000000000000000E+00 0.000000000000000000E+00
pair_coeff 24   26     0.000000000000000000E+00 0.000000000000000000E+00
pair_coeff 25   26     0.000000000000000000E+00 0.000000000000000000E+00
pair_coeff 26     26     0.000000000000000000E+00 0.000000000000000000E+00
pair_coeff 1      27   5.148167869545027253E-01 2.198391984374735042E+00
pair_coeff 2     27   1.896163524310913173E-01 2.596577466216851260E+00
pair_coeff 3     27   4.741181493550025716E-01 2.228774610499382636E+00
pair_coeff 4     27   4.741181493550025716E-01 2.228774610499382636E+00
pair_coeff 5     27   4.147534460805777923E-01 2.306908466707524141E+00
pair_coeff 6      27   4.114317946416216065E-01 2.296253463382908144E+00
pair_coeff 7     27   4.114317946416216065E-01 2.296253463382908144E+00
pair_coeff 8     27   4.114317946416216065E-01 2.296253463382908144E+00
pair_coeff 9     27   3.403642711782671748E-01 2.369984315549452436E+00
pair_coeff 10     27   4.114317946416216065E-01 2.296253463382908144E+00
pair_coeff 11     27   4.114317946416216065E-01 2.296253463382908144E+00
pair_coeff 12      27   2.709162932331031781E-01 2.453646898458591963E+00
pair_coeff 13    27   4.302135444964862165E-02 3.340923226938115054E+00
pair_coeff 14    27   1.584477717956855047E-01 2.904795040652100369E+00
pair_coeff 15    27   3.295766478763905716E-01 2.615872541507785698E+00
pair_coeff 16    27   4.789880153488779158E-01 2.510117776321816319E+00
pair_coeff 17    27   5.782097536577677221E-01 2.497370745143705939E+00
pair_coeff 18   27   3.560990341007065352E-01 2.578445272956105150E+00
pair_coeff 19    27   3.646818179386565606E-01 2.507864100562072096E+00
pair_coeff 20     27   1.769774750163259913E-01 1.997492909224773072E+00
pair_coeff 21      27   0.000000000000000000E+00 0.000000000000000000E+00
pair_coeff 22    27   0.000000000000000000E+00 0.000000000000000000E+00
pair_coeff 23      27   7.101071414248384395E-01 2.358097177009347067E+00
pair_coeff 24   27   1.502386642309327724E+00 1.597688860942628741E+00
pair_coeff 25   27   1.502386642309327724E+00 1.597688860942628741E+00
pair_coeff 26     27   0.000000000000000000E+00 0.000000000000000000E+00
pair_coeff 27   27   1.106997321149905122E+00 1.681117482676084629E+00
pair_coeff 1      28   1.337556733810085774E-01 2.357481108494590138E+00
pair_coeff 2     28   4.926463850082780926E-02 2.784481733402069281E+00
pair_coeff 3     28   1.231816714918823885E-01 2.390062407746226469E+00
pair_coeff 4     28   1.231816714918823885E-01 2.390062407746226469E+00
pair_coeff 5     28   1.077579983274792180E-01 2.473850508891853206E+00
pair_coeff 6      28   1.068949928152020112E-01 2.462424444192170547E+00
pair_coeff 7     28   1.068949928152020112E-01 2.462424444192170547E+00
pair_coeff 8     28   1.068949928152020112E-01 2.462424444192170547E+00
pair_coeff 9     28   8.843078438758973647E-02 2.541490912925349122E+00
pair_coeff 10     28   1.068949928152020112E-01 2.462424444192170547E+00
pair_coeff 11     28   1.068949928152020112E-01 2.462424444192170547E+00
pair_coeff 12      28   7.038735361689542336E-02 2.631207833337182223E+00
pair_coeff 13    28   1.117747202498341370E-02 3.582692917558796708E+00
pair_coeff 14    28   4.116666151782900213E-02 3.115003821456256539E+00
pair_coeff 15    28   8.562802842568927042E-02 2.805173118654866293E+00
pair_coeff 16    28   1.244469220077783211E-01 2.691765290191502125E+00
pair_coeff 17    28   1.502259384614757498E-01 2.678095805674920893E+00
pair_coeff 18   28   9.251886749504166507E-02 2.765037383453741171E+00
pair_coeff 19    28   9.474877930215237776E-02 2.689348524634663118E+00
pair_coeff 20     28   4.598090416614816073E-02 2.142043744391038285E+00
pair_coeff 21      28   0.000000000000000000E+00 0.000000000000000000E+00
pair_coeff 22    28   0.000000000000000000E+00 0.000000000000000000E+00
pair_coeff 23      28   1.844944867392919463E-01 2.528743548150760745E+00
pair_coeff 24   28   3.903383535907812840E-01 1.713307423651182493E+00
pair_coeff 25   28   3.903383535907812840E-01 1.713307423651182493E+00
pair_coeff 26     28   0.000000000000000000E+00 0.000000000000000000E+00
pair_coeff 27   28   2.876113908353647441E-01 1.802773452022052636E+00
pair_coeff 28   28   7.472494337414144205E-02 1.933233193281657103E+00
pair_coeff 1      29   1.703146428752259911E-01 2.843803441534021204E+00
pair_coeff 2     29   6.272996950749848422E-02 3.358889582531555007E+00
pair_coeff 3     29   1.568504861035088516E-01 2.883105903219756350E+00
pair_coeff 4     29   1.568504861035088516E-01 2.883105903219756350E+00
pair_coeff 5     29   1.372111144012202466E-01 2.984178564858046556E+00
pair_coeff 6      29   1.361122266164445094E-01 2.970395429120896935E+00
pair_coeff 7     29   1.361122266164445094E-01 2.970395429120896935E+00
pair_coeff 8     29   1.361122266164445094E-01 2.970395429120896935E+00
pair_coeff 9     29   1.126012608021971506E-01 3.065772437692955599E+00
pair_coeff 10     29   1.361122266164445094E-01 2.970395429120896935E+00
pair_coeff 11     29   1.361122266164445094E-01 2.970395429120896935E+00
pair_coeff 12      29   8.962608232733035307E-02 3.173996968575379718E+00
pair_coeff 13    29   1.423257128510838597E-02 4.321762924080988277E+00
pair_coeff 14    29   5.241860085293292143E-02 3.757594729361648955E+00
pair_coeff 15    29   1.090324373747397629E-01 3.383849372190097071E+00
pair_coeff 16    29   1.584615631091823018E-01 3.247046760402909182E+00
pair_coeff 17    29   1.912866677944946026E-01 3.230557412101377146E+00
pair_coeff 18   29   1.178067253398141917E-01 3.335434077797200025E+00
pair_coeff 19    29   1.206461311270324160E-01 3.244131442785662678E+00
pair_coeff 20     29   5.854870357409030363E-02 2.583923727009426852E+00
pair_coeff 21      29   0.000000000000000000E+00 0.000000000000000000E+00
pair_coeff 22    29   0.000000000000000000E+00 0.000000000000000000E+00
pair_coeff 23      29   2.349217182881164212E-01 3.050395432258705242E+00
pair_coeff 24   29   4.970281679412999476E-01 2.066743835286263042E+00
pair_coeff 25   29   4.970281679412999476E-01 2.066743835286263042E+00
pair_coeff 26     29   0.000000000000000000E+00 0.000000000000000000E+00
pair_coeff 27   29   3.662232044351344529E-01 2.174665717868782711E+00
pair_coeff 28   29   9.514925029300028148E-02 2.332037863859216742E+00
pair_coeff 29   29   1.211560614504652439E-01 2.813111536348800179E+00
pair_coeff 1      30     2.698242160009388657E-01 3.067797545829641592E+00
pair_coeff 2     30     3.133482940435941000E-01 2.992280441419951309E+00
pair_coeff 3     30     2.452947418190353224E-01 3.116918714488987607E+00
pair_coeff 4     30     2.452947418190353224E-01 3.116918714488987607E+00
pair_coeff 5     30     1.923710802470132430E-01 3.285476264338809127E+00
pair_coeff 6      30     1.908304307803131428E-01 3.270301513790756509E+00
pair_coeff 7     30     1.908304307803131428E-01 3.270301513790756509E+00
pair_coeff 8     30     1.908304307803131428E-01 3.270301513790756509E+00
pair_coeff 9     30     1.908304307803131428E-01 3.270301513790756509E+00
pair_coeff 10     30     1.908304307803131428E-01 3.270301513790756509E+00
pair_coeff 11     30     1.908304307803131428E-01 3.270301513790756509E+00
pair_coeff 12      30     1.256564845410435005E-01 3.494459690227617266E+00
pair_coeff 13    30     1.995417881967565324E-02 4.758109878000214898E+00
pair_coeff 14    30     7.349129780864194217E-02 4.136980420576664486E+00
pair_coeff 15    30     1.528643495920544437E-01 3.725499849556486165E+00
pair_coeff 16    30     2.221643793651205678E-01 3.574884956996347896E+00
pair_coeff 17    30     2.681854387748578428E-01 3.556730761031980492E+00
pair_coeff 18   30     1.651659715241092508E-01 3.672196303169541487E+00
pair_coeff 19    30     1.691468411565035523E-01 3.571675294227750541E+00
pair_coeff 20     30     8.208575087201354370E-02 2.844809681941795620E+00
pair_coeff 21      30     0.000000000000000000E+00 0.000000000000000000E+00
pair_coeff 22    30     0.000000000000000000E+00 0.000000000000000000E+00
pair_coeff 23      30     3.293621287006147091E-01 3.358378720212484847E+00
pair_coeff 24   30     6.968374682861073754E-01 2.275412703269175108E+00
pair_coeff 25   30     6.968374682861073754E-01 2.275412703269175108E+00
pair_coeff 26     30     0.000000000000000000E+00 0.000000000000000000E+00
pair_coeff 27   30     5.134478628509925313E-01 2.394230922729341682E+00
pair_coeff 28   30     1.334000102210023686E-01 2.567492153276457856E+00
pair_coeff 29   30     1.698617675500217472E-01 3.097137446951440776E+00
pair_coeff 30     30     2.381475572067369983E-01 3.409840044152281813E+00
pair_coeff 1      31      1.825200170718821457E-01 2.848641691863192271E+00
pair_coeff 2     31      2.119614644894694810E-01 2.778519342243783719E+00
pair_coeff 3     31      1.057395499456308119E-01 3.119966996841143647E+00
pair_coeff 4     31      1.659272882471655997E-01 2.894253765967063963E+00
pair_coeff 5     31      9.249981842420902656E-02 3.229343266454477224E+00
pair_coeff 6      31      7.192433081344887236E-02 3.347591749745056244E+00
pair_coeff 7     31      6.211065545356941192E-02 3.430447483334676306E+00
pair_coeff 8     31      4.555051328896060625E-02 3.612403446600987778E+00
pair_coeff 9     31      7.590927472598106573E-02 3.317640470558243848E+00
pair_coeff 10     31      6.506004412035899798E-02 3.404024952464428821E+00
pair_coeff 11     31      7.043799131579189798E-02 3.359262692221449242E+00
pair_coeff 12      31      8.499913033581890653E-02 3.244824150032262100E+00
pair_coeff 13    31      1.349781392048931411E-02 4.418202300006069727E+00
pair_coeff 14    31      4.971248737222838665E-02 3.841444791719262675E+00
pair_coeff 15    31      1.034036311148842646E-01 3.459359372949309286E+00
pair_coeff 16    31      1.502809752047785663E-01 3.319504035055336644E+00
pair_coeff 17    31      1.814114818495274339E-01 3.302646729860391872E+00
pair_coeff 18   31      1.117249459261637351E-01 3.409863699817805127E+00
pair_coeff 19    31      1.144177672156473091E-01 3.316523662640645131E+00
pair_coeff 20     31      5.552612316481649046E-02 2.641583528356301613E+00
pair_coeff 21      31      0.000000000000000000E+00 0.000000000000000000E+00
pair_coeff 22    31      0.000000000000000000E+00 0.000000000000000000E+00
pair_coeff 23      31      2.227938701879095817E-01 3.118464467275081642E+00
pair_coeff 24   31      1.066111026131294215E-01 2.706851401515291577E+00
pair_coeff 25   31      5.863480344158913254E-02 2.990466271099721407E+00
pair_coeff 26     31      0.000000000000000000E+00 0.000000000000000000E+00
pair_coeff 27   31      2.468865591596759723E-01 2.353325024008075417E+00
pair_coeff 28   31      6.414413594489304371E-02 2.523626052896363436E+00
pair_coeff 29   31      8.167642784672754508E-02 3.044222254215389167E+00
pair_coeff 30     31      1.610926433928725754E-01 3.166249521765611696E+00
pair_coeff 31      31      1.089695819670959825E-01 2.940060502624928240E+00
pair_coeff 1      32     3.028875918701723902E-01 3.094659625059138719E+00
pair_coeff 2     32     3.517449679133345941E-01 3.018481281955716966E+00
pair_coeff 3     32     2.468521531134249269E-01 3.201992541656678348E+00
pair_coeff 4     32     2.753523562456112184E-01 3.144210905779225573E+00
pair_coeff 5     32     2.159436024870309834E-01 3.314244369926244271E+00
pair_coeff 6      32     1.679095090878598429E-01 3.435601666955987898E+00
pair_coeff 7     32     1.449991894034274031E-01 3.520635720603371155E+00
pair_coeff 8     32     1.063390404686152813E-01 3.707375400182857383E+00
pair_coeff 9     32     1.772124802594848836E-01 3.404862953159864425E+00
pair_coeff 10     32     1.518846257717465786E-01 3.493518527740791413E+00
pair_coeff 11     32     1.644396049182014208E-01 3.447579444541888805E+00
pair_coeff 12      32     1.410540186851716171E-01 3.525057684932574986E+00
pair_coeff 13    32     2.239929855079176788E-02 4.799772576602748586E+00
pair_coeff 14    32     8.249668078937649751E-02 4.173204419770964790E+00
pair_coeff 15    32     1.715958464253498628E-01 3.758120865328633986E+00
pair_coeff 16    32     2.493876749186909880E-01 3.606187166974876845E+00
pair_coeff 17    32     3.010480042491057717E-01 3.587874010243685685E+00
pair_coeff 18   32     1.854048688263800759E-01 3.704350585376364968E+00
pair_coeff 19    32     1.898735411878733903E-01 3.602949399934630925E+00
pair_coeff 20     32     9.214426998795607893E-02 2.869719247168172060E+00
pair_coeff 21      32     0.000000000000000000E+00 0.000000000000000000E+00
pair_coeff 22    32     0.000000000000000000E+00 0.000000000000000000E+00
pair_coeff 23      32     3.697210854307304562E-01 3.387785170252723521E+00
pair_coeff 24   32     2.488868189752940496E-01 2.778015923822349631E+00
pair_coeff 25   32     1.368847085539993957E-01 3.069087174906648396E+00
pair_coeff 26     32     0.000000000000000000E+00 0.000000000000000000E+00
pair_coeff 27   32     5.763640826414281326E-01 2.415195155140145822E+00
pair_coeff 28   32     1.497464106452001675E-01 2.589973486093279487E+00
pair_coeff 29   32     1.906760723205734864E-01 3.124256430600719447E+00
pair_coeff 30     32     2.673293790349109966E-01 3.439697096991523484E+00
pair_coeff 31      32     1.808324084043584357E-01 3.193973660742658982E+00
pair_coeff 32     32     3.000870457518571288E-01 3.469815582505817453E+00
pair_coeff 1      33     4.619134934213758870E-01 3.174341374980300667E+00
pair_coeff 2     33     5.364225913614864005E-01 3.096201580725539859E+00
pair_coeff 3     33     3.764576148503470665E-01 3.284437915256962270E+00
pair_coeff 4     33     4.199213576557962457E-01 3.225168509344078061E+00
pair_coeff 5     33     3.293210632726623621E-01 3.399580020064839836E+00
pair_coeff 6      33     2.560674983169540231E-01 3.524062042578035125E+00
pair_coeff 7     33     2.211285107688185092E-01 3.611285565510714335E+00
pair_coeff 8     33     1.621705180019040737E-01 3.802833445749207453E+00
pair_coeff 9     33     2.702548339108319375E-01 3.492531863870627973E+00
pair_coeff 10     33     2.316290266433154443E-01 3.583470155189018680E+00
pair_coeff 11     33     2.507757808618153450E-01 3.536348225738003670E+00
pair_coeff 12      33     2.151119962679723108E-01 3.615821387226038297E+00
pair_coeff 13    33     3.415966358971698341E-02 4.923357824889950329E+00
pair_coeff 14    33     1.258101389489161837E-01 4.280656699257024300E+00
pair_coeff 15    33     2.616892834385430300E-01 3.854885512574417916E+00
pair_coeff 16    33     3.803243686103310317E-01 3.699039803071263677E+00
pair_coeff 17    33     4.591080620755257913E-01 3.680255116494558720E+00
pair_coeff 18   33     2.827484946746637862E-01 3.799730747567426459E+00
pair_coeff 19    33     2.895633663196458540E-01 3.695718669530379863E+00
pair_coeff 20     33     1.405230283158743487E-01 2.943609199247290142E+00
pair_coeff 21      33     0.000000000000000000E+00 0.000000000000000000E+00
pair_coeff 22    33     0.000000000000000000E+00 0.000000000000000000E+00
pair_coeff 23      33     5.638367590708479593E-01 3.475014359704387434E+00
pair_coeff 24   33     3.795605468998184961E-01 2.849544685281790724E+00
pair_coeff 25   33     2.087536618246373654E-01 3.148110481630561619E+00
pair_coeff 26     33     0.000000000000000000E+00 0.000000000000000000E+00
pair_coeff 27   33     8.789740948174059598E-01 2.477381954232469763E+00
pair_coeff 28   33     2.283681785752544047E-01 2.656660503285802832E+00
pair_coeff 29   33     2.907872525699738975E-01 3.204700243411942928E+00
pair_coeff 30     33     4.076860547562866088E-01 3.528262922346804054E+00
pair_coeff 31      33     2.757753428396018114E-01 3.276212563021035251E+00
pair_coeff 32     33     4.576425689077261438E-01 3.559156903043612541E+00
pair_coeff 33     33     6.979198997135206417E-01 3.650798597006346569E+00
pair_coeff 1      34   2.726298193589453134E-01 3.152721713066568121E+00
pair_coeff 2     34   3.166064561130476629E-01 3.075114109819085950E+00
pair_coeff 3     34   2.478452903263138885E-01 3.203202676262477233E+00
pair_coeff 4     34   2.478452903263138885E-01 3.203202676262477233E+00
pair_coeff 5     34   1.943713341779741421E-01 3.376426312885838499E+00
pair_coeff 6      34   1.928146652027906693E-01 3.360831487989961452E+00
pair_coeff 7     34   1.928146652027906693E-01 3.360831487989961452E+00
pair_coeff 8     34   1.928146652027906693E-01 3.360831487989961452E+00
pair_coeff 9     34   1.928146652027906693E-01 3.360831487989961452E+00
pair_coeff 10     34   1.928146652027906693E-01 3.360831487989961452E+00
pair_coeff 11     34   1.928146652027906693E-01 3.360831487989961452E+00
pair_coeff 12      34   1.269630472365963769E-01 3.591194913038851411E+00
pair_coeff 13    34   2.016166023825427880E-02 4.889826040157090326E+00
pair_coeff 14    34   7.425545246819055534E-02 4.251502194534839241E+00
pair_coeff 15    34   1.544538167603142498E-01 3.828630831160853454E+00
pair_coeff 16    34   2.244744208358758208E-01 3.673846548628572073E+00
pair_coeff 17    34   2.709740023024271305E-01 3.655189799952984320E+00
pair_coeff 18   34   1.668833496423683671E-01 3.773851711754483418E+00
pair_coeff 19    34   1.709056119317078348E-01 3.670548034515104696E+00
pair_coeff 20     34   8.293926973590307061E-02 2.923560997691061925E+00
pair_coeff 21      34   0.000000000000000000E+00 0.000000000000000000E+00
pair_coeff 22    34   0.000000000000000000E+00 0.000000000000000000E+00
pair_coeff 23      34   3.327868009112045500E-01 3.451346887707100741E+00
pair_coeff 24   34   7.040831098003642596E-01 2.338401712830169732E+00
pair_coeff 25   34   7.040831098003642596E-01 2.338401712830169732E+00
pair_coeff 26     34   0.000000000000000000E+00 0.000000000000000000E+00
pair_coeff 27   34   5.187866388494037917E-01 2.460509112293086442E+00
pair_coeff 28   34   1.347870892689141398E-01 2.638566639042558393E+00
pair_coeff 29   34   1.716279720534513720E-01 3.182873814678249147E+00
pair_coeff 30     34   2.406237900523386375E-01 3.504232787426495133E+00
pair_coeff 31      34   1.627676674805978718E-01 3.253899081387234382E+00
pair_coeff 32     34   2.701090413448035132E-01 3.534916356784718605E+00
pair_coeff 33     34   4.119251307784054794E-01 3.625933901607006682E+00
pair_coeff 34   34   2.431257705023985027E-01 3.601238553560273559E+00
pair_coeff 1      35   1.774056427875315700E-01 3.022113465134438570E+00
pair_coeff 2     35   1.088910246333028992E-01 3.278234300527326894E+00
pair_coeff 3     35   1.633809098206280841E-01 3.063880240200058669E+00
pair_coeff 4     35   1.633809098206280841E-01 3.063880240200058669E+00
pair_coeff 5     35   1.429238586712428538E-01 3.171290283817308264E+00
pair_coeff 6      35   1.111321413093139809E-01 3.287413047857584036E+00
pair_coeff 7     35   9.596877802844315519E-02 3.368779307561466041E+00
pair_coeff 8     35   7.038127462972523785E-02 3.547464300384358893E+00
pair_coeff 9     35   1.172893810776735740E-01 3.258000194272241412E+00
pair_coeff 10     35   1.005259546387323316E-01 3.342831766990879583E+00
pair_coeff 11     35   1.088355597600791647E-01 3.298874185130554082E+00
pair_coeff 12      35   9.335763782481623640E-02 3.373010538257620983E+00
pair_coeff 13    35   1.482514019187304057E-02 4.592742851080654276E+00
pair_coeff 14    35   5.460103383565441393E-02 3.993200606718578349E+00
pair_coeff 15    35   1.135719707396375816E-01 3.596020949382504384E+00
pair_coeff 16    35   1.650590635421556873E-01 3.450640643166755339E+00
pair_coeff 17    35   1.992508317774452642E-01 3.433117392155260461E+00
pair_coeff 18   35   1.227115735956721548E-01 3.544569955630175073E+00
pair_coeff 19    35   1.256691972052001172E-01 3.447542531497872709E+00
pair_coeff 20     35   6.098636157519143897E-02 2.745938968293540228E+00
pair_coeff 21      35   0.000000000000000000E+00 0.000000000000000000E+00
pair_coeff 22    35   0.000000000000000000E+00 0.000000000000000000E+00
pair_coeff 23      35   2.447026147257768958E-01 3.241659031413521852E+00
pair_coeff 24   35   1.647275683589491391E-01 2.658191106078167110E+00
pair_coeff 25   35   9.059814930521523091E-02 2.936707512061449421E+00
pair_coeff 26     35   0.000000000000000000E+00 0.000000000000000000E+00
pair_coeff 27   35   3.814707995138282293E-01 2.311019971405739337E+00
pair_coeff 28   35   9.911076125937028081E-02 2.478259547281012942E+00
pair_coeff 29   35   1.262003583272166274E-01 2.989497139204101650E+00
pair_coeff 30     35   1.769339121317631824E-01 3.291331828740973631E+00
pair_coeff 31      35   8.507700182510755105E-02 3.235098787405478848E+00
pair_coeff 32     35   1.986148143410966516E-01 3.320151206497628849E+00
pair_coeff 33     35   3.028940940468037857E-01 3.405638946730622507E+00
pair_coeff 34   35   1.787736520386526418E-01 3.382443973685540506E+00
pair_coeff 35   35   1.314546730163348442E-01 3.176942339410103067E+00
pair_coeff 1      36    3.493138043396110115E-02 2.995467182793318806E+00
pair_coeff 2     36    1.286586045970535865E-02 3.538023538529870837E+00
pair_coeff 3     36    3.216989396118666994E-02 3.036865695947625898E+00
pair_coeff 4     36    3.216989396118666994E-02 3.036865695947625898E+00
pair_coeff 5     36    2.814187644704253116E-02 3.143328694266439349E+00
pair_coeff 6      36    2.791649554839393046E-02 3.128810485949500286E+00
pair_coeff 7     36    2.791649554839393046E-02 3.128810485949500286E+00
pair_coeff 8     36    2.791649554839393046E-02 3.128810485949500286E+00
pair_coeff 9     36    2.309441755578705083E-02 3.229274074606136136E+00
pair_coeff 10     36    2.791649554839393046E-02 3.128810485949500286E+00
pair_coeff 11     36    2.791649554839393046E-02 3.128810485949500286E+00
pair_coeff 12      36    1.838222906573640236E-02 3.343270360670348218E+00
pair_coeff 13    36    2.919087599988792053E-03 4.552248169414355949E+00
pair_coeff 14    36    1.075100800082823098E-02 3.957992150107363383E+00
pair_coeff 15    36    2.236245507304574984E-02 3.564314466278117433E+00
pair_coeff 16    36    3.250032440946476475E-02 3.420215993034873669E+00
pair_coeff 17    36    3.923272392714612089E-02 3.402847246312967755E+00
pair_coeff 18   36    2.416205366169842800E-02 3.513317121179974301E+00
pair_coeff 19    36    2.474441324091778208E-02 3.417145197732238238E+00
pair_coeff 20     36    1.200828656852534135E-02 2.721727744630110912E+00
pair_coeff 21      36    0.000000000000000000E+00 0.000000000000000000E+00
pair_coeff 22    36    0.000000000000000000E+00 0.000000000000000000E+00
pair_coeff 23      36    4.818223363057468761E-02 3.213076993445320717E+00
pair_coeff 24   36    1.019400312718368312E-01 2.176965975714864943E+00
pair_coeff 25   36    1.019400312718368312E-01 2.176965975714864943E+00
pair_coeff 26     36    0.000000000000000000E+00 0.000000000000000000E+00
pair_coeff 27   36    7.511205062526553344E-02 2.290643472851174423E+00
pair_coeff 28   36    1.951502585967282086E-02 2.456408480346143008E+00
pair_coeff 29   36    2.484899949270408595E-02 2.963138438331942570E+00
pair_coeff 30     36    3.483849611111720229E-02 3.262311820657642247E+00
pair_coeff 31      36    1.675176206482257082E-02 3.206574591777111127E+00
pair_coeff 32     36    3.910749134331937410E-02 3.290877095024250742E+00
pair_coeff 33     36    5.964020458481446990E-02 3.375611081141380421E+00
pair_coeff 34   36    3.520074306999246977E-02 3.352620620536940876E+00
pair_coeff 35   36    2.588358025598428910E-02 3.148930915109191542E+00
pair_coeff 36    36    5.096507499468877836E-03 3.121166470390387637E+00
pair_coeff 1      37    2.226461306623754022E-01 3.362204455973978323E+00
pair_coeff 2     37    2.585601331580250628E-01 3.279440211868734245E+00
pair_coeff 3     37    1.814556892113898812E-01 3.478816702288478169E+00
pair_coeff 4     37    2.024055733294321535E-01 3.416039629150127599E+00
pair_coeff 5     37    1.587354808368636461E-01 3.600773118478173718E+00
pair_coeff 6      37    1.234266556414602978E-01 3.732622205057627429E+00
pair_coeff 7     37    1.065857741828254851E-01 3.825007768809989717E+00
pair_coeff 8     37    7.816753321752194228E-02 4.027891788010422580E+00
pair_coeff 9     37    1.302650689360985159E-01 3.699226015163477044E+00
pair_coeff 10     37    1.116471098283786517E-01 3.795546193799352430E+00
pair_coeff 11     37    1.208760039875793058E-01 3.745635506050692953E+00
pair_coeff 12      37    1.036857643481583074E-01 3.829812028396864854E+00
pair_coeff 13    37    1.646524085418059336E-02 5.214730762000061581E+00
pair_coeff 14    37    6.064152927768903800E-02 4.533993458352017392E+00
pair_coeff 15    37    1.261364026450952358E-01 4.083024387295987268E+00
pair_coeff 16    37    1.833194965587523484E-01 3.917955455811204413E+00
pair_coeff 17    37    2.212938895114058557E-01 3.898059058590013226E+00
pair_coeff 18   37    1.362871169309986807E-01 4.024605466717271263E+00
pair_coeff 19    37    1.395719415233208360E-01 3.914437771771909880E+00
pair_coeff 20     37    6.773326384502838249E-02 3.117817146058102118E+00
pair_coeff 21      37    0.000000000000000000E+00 0.000000000000000000E+00
pair_coeff 22    37    0.000000000000000000E+00 0.000000000000000000E+00
pair_coeff 23      37    2.717739891131936147E-01 3.680671794426697563E+00
pair_coeff 24   37    1.829513281662208113E-01 3.018185729444698318E+00
pair_coeff 25   37    1.006209944693221142E-01 3.334421172424263169E+00
pair_coeff 26     37    0.000000000000000000E+00 0.000000000000000000E+00
pair_coeff 27   37    4.236727957739777617E-01 2.623997756297280493E+00
pair_coeff 28   37    1.100753540442943462E-01 2.813886323808834078E+00
pair_coeff 29   37    1.401618648355585917E-01 3.394360015399224828E+00
pair_coeff 30     37    1.965080559655630332E-01 3.737071700247052153E+00
pair_coeff 31      37    1.329259999757477217E-01 3.470104559304247438E+00
pair_coeff 32     37    2.205875096632962662E-01 3.769794040818323477E+00
pair_coeff 33     37    3.364031737469428962E-01 3.866859250698725603E+00
pair_coeff 34   37    1.985513257278677390E-01 3.840523019086392154E+00
pair_coeff 35   37    1.459974627294264860E-01 3.607190623033505794E+00
pair_coeff 36    37    2.874707271347901050E-02 3.575385655778474892E+00
pair_coeff 37    37    1.621491167589119986E-01 4.095706752209074430E+00
pair_coeff 1      38   1.763627633860331279E-01 3.063392634298282680E+00
pair_coeff 2     38   2.048110131065301875E-01 2.987983961478049899E+00
pair_coeff 3     38   1.603297848963937400E-01 3.112443272096635738E+00
pair_coeff 4     38   1.603297848963937400E-01 3.112443272096635738E+00
pair_coeff 5     38   1.257377703556508686E-01 3.280758797795926274E+00
pair_coeff 6      38   1.247307695705341529E-01 3.265605835984801697E+00
pair_coeff 7     38   1.247307695705341529E-01 3.265605835984801697E+00
pair_coeff 8     38   1.247307695705341529E-01 3.265605835984801697E+00
pair_coeff 9     38   1.247307695705341529E-01 3.265605835984801697E+00
pair_coeff 10     38   1.247307695705341529E-01 3.265605835984801697E+00
pair_coeff 11     38   1.247307695705341529E-01 3.265605835984801697E+00
pair_coeff 12      38   8.213171219204309925E-02 3.489442153850004225E+00
pair_coeff 13    38   1.304246953774084068E-02 4.751277923558641980E+00
pair_coeff 14    38   4.803545270493036340E-02 4.131040317787165073E+00
pair_coeff 15    38   9.991534309570471173E-02 3.720150573079720857E+00
pair_coeff 16    38   1.452112951590650569E-01 3.569751941621275737E+00
pair_coeff 17    38   1.752916242405209712E-01 3.551623812444546502E+00
pair_coeff 18   38   1.079559410458155871E-01 3.666923562840495698E+00
pair_coeff 19    38   1.105579208808877417E-01 3.566546887462056503E+00
pair_coeff 20     38   5.365296737619508483E-02 2.840724948583317921E+00
pair_coeff 21      38   0.000000000000000000E+00 0.000000000000000000E+00
pair_coeff 22    38   0.000000000000000000E+00 0.000000000000000000E+00
pair_coeff 23      38   2.152779911056781903E-01 3.353556576335538608E+00
pair_coeff 24   38   4.554675757398939928E-01 2.272145541239902311E+00
pair_coeff 25   38   4.554675757398939928E-01 2.272145541239902311E+00
pair_coeff 26     38   0.000000000000000000E+00 0.000000000000000000E+00
pair_coeff 27   38   3.356002855827399101E-01 2.390793155000958237E+00
pair_coeff 28   38   8.719304288914962731E-02 2.563805607595497360E+00
pair_coeff 29   38   1.110252117573227587E-01 3.092690407585096501E+00
pair_coeff 30     38   1.556582352210648112E-01 3.404944009291379192E+00
pair_coeff 31      38   1.052935283978697484E-01 3.161703247501671754E+00
pair_coeff 32     38   1.747320856505523434E-01 3.434758191740909350E+00
pair_coeff 33     38   2.664721509299896041E-01 3.523196849439405476E+00
pair_coeff 34   38   1.572767529134725395E-01 3.499201218301315031E+00
pair_coeff 35   38   1.156477136957594076E-01 3.286605954458409862E+00
pair_coeff 36    38   2.277117131083897586E-02 3.257627614890140855E+00
pair_coeff 37    38   1.284417844007869070E-01 3.731705808274059954E+00
pair_coeff 38   38   1.017414853056947954E-01 3.400055004425153182E+00
pair_coeff 1      39  3.025968882784489944E-01 3.081336470273898787E+00
pair_coeff 2     39  3.514073722894541785E-01 3.005486090817345968E+00
pair_coeff 3     39  2.750880802531354141E-01 3.130674422401240609E+00
pair_coeff 4     39  2.750880802531354141E-01 3.130674422401240609E+00
pair_coeff 5     39  2.157363454631790467E-01 3.299975857040665872E+00
pair_coeff 6      39  2.140085697228813477E-01 3.284734136688360451E+00
pair_coeff 7     39  2.140085697228813477E-01 3.284734136688360451E+00
pair_coeff 8     39  2.140085697228813477E-01 3.284734136688360451E+00
pair_coeff 9     39  2.140085697228813477E-01 3.284734136688360451E+00
pair_coeff 10     39  2.140085697228813477E-01 3.284734136688360451E+00
pair_coeff 11     39  2.140085697228813477E-01 3.284734136688360451E+00
pair_coeff 12      39  1.409186387258750672E-01 3.509881576780662371E+00
pair_coeff 13    39  2.237780028966923282E-02 4.779108555120642698E+00
pair_coeff 14    39  8.241750263201898241E-02 4.155237904815708205E+00
pair_coeff 15    39  1.714311532183001030E-01 3.741941371601773980E+00
pair_coeff 16    39  2.491483191485096838E-01 3.590661779490871286E+00
pair_coeff 17    39  3.007590662454852626E-01 3.572427464716889212E+00
pair_coeff 18   39  1.852269220806647965E-01 3.688402583913419353E+00
pair_coeff 19    39  1.896913055272583803E-01 3.587437951712664219E+00
pair_coeff 20     39  9.205583232672064076E-02 2.857364507599851500E+00
pair_coeff 21      39  0.000000000000000000E+00 0.000000000000000000E+00
pair_coeff 22    39  0.000000000000000000E+00 0.000000000000000000E+00
pair_coeff 23      39  3.693662367992399664E-01 3.373200048891741964E+00
pair_coeff 24   39  7.814748900761182560E-01 2.285454643849949008E+00
pair_coeff 25   39  7.814748900761182560E-01 2.285454643849949008E+00
pair_coeff 26     39  0.000000000000000000E+00 0.000000000000000000E+00
pair_coeff 27   39  5.758109034638668744E-01 2.404797236536131866E+00
pair_coeff 28   39  1.496026879553617739E-01 2.578823110340977554E+00
pair_coeff 29   39  1.904930664115593308E-01 3.110805855398001363E+00
pair_coeff 30     39  2.670728032862023649E-01 3.424888483964596109E+00
pair_coeff 31      39  1.806588501866098206E-01 3.180222938331227489E+00
pair_coeff 32     39  2.997990300510781636E-01 3.454877303120381882E+00
pair_coeff 33     39  4.572033355350892392E-01 3.543833990649556398E+00
pair_coeff 34   39  2.698497977488837352E-01 3.519697804995386647E+00
pair_coeff 35   39  1.984241890350484927E-01 3.305857263449297090E+00
pair_coeff 36    39  3.906995699558794138E-02 3.276709183128165837E+00
pair_coeff 37    39  2.203757955387509737E-01 3.753564291637640160E+00
pair_coeff 38   39  1.745857558702323398E-01 3.420002180612172538E+00
pair_coeff 39  39  2.995112907802387481E-01 3.440003336141669088E+00
pair_coeff 1      40   7.770287548036601544E-02 2.465397265096893165E+00
pair_coeff 2     40   9.023676167734992482E-02 2.404708885274443819E+00
pair_coeff 3     40   7.063897770942365040E-02 2.504872880114495270E+00
pair_coeff 4     40   7.063897770942365040E-02 2.504872880114495270E+00
pair_coeff 5     40   5.539823784535763407E-02 2.640332054392829697E+00
pair_coeff 6      40   5.495456790555701410E-02 2.628137055231117181E+00
pair_coeff 7     40   5.495456790555701410E-02 2.628137055231117181E+00
pair_coeff 8     40   5.495456790555701410E-02 2.628137055231117181E+00
pair_coeff 9     40   5.495456790555701410E-02 2.628137055231117181E+00
pair_coeff 10     40   5.495456790555701410E-02 2.628137055231117181E+00
pair_coeff 11     40   5.495456790555701410E-02 2.628137055231117181E+00
pair_coeff 12      40   3.618604110595938922E-02 2.808278980140014092E+00
pair_coeff 13    40   5.746322902807278477E-03 3.823795705227954755E+00
pair_coeff 14    40   2.116372372780480487E-02 3.324632757632268287E+00
pair_coeff 15    40   4.402125093804482719E-02 2.993951524832954014E+00
pair_coeff 16    40   6.397799041847561374E-02 2.872911743474042101E+00
pair_coeff 17    40   7.723094710927499995E-02 2.858322350135023004E+00
pair_coeff 18   40   4.756382176938069029E-02 2.951114794077698278E+00
pair_coeff 19    40   4.871021634409310186E-02 2.870332337990671334E+00
pair_coeff 20     40   2.363871921228234349E-02 2.286195847282922244E+00
pair_coeff 21      40   0.000000000000000000E+00 0.000000000000000000E+00
pair_coeff 22    40   0.000000000000000000E+00 0.000000000000000000E+00
pair_coeff 23      40   9.484836036467202136E-02 2.698919204504523606E+00
pair_coeff 24   40   2.006724075058574086E-01 1.828607061516331456E+00
pair_coeff 25   40   2.006724075058574086E-01 1.828607061516331456E+00
pair_coeff 26     40   0.000000000000000000E+00 0.000000000000000000E+00
pair_coeff 27   40   1.478606180871174514E-01 1.924093842806378074E+00
pair_coeff 28   40   3.841598999863683750E-02 2.063333071457193135E+00
pair_coeff 29   40   4.891609792639325244E-02 2.488975910983167061E+00
pair_coeff 30     40   6.858076068133200920E-02 2.740275456148935529E+00
pair_coeff 31      40   4.639080137386862590E-02 2.544516968594239259E+00
pair_coeff 32     40   7.698442252240610129E-02 2.764269704567898334E+00
pair_coeff 33     40   1.174037646335611834E-01 2.835444526357811412E+00
pair_coeff 34   40   6.929385610069017931E-02 2.816133007906088892E+00
pair_coeff 35   40   5.095270523302689036E-02 2.645037805749309356E+00
pair_coeff 36    40   1.003264779331716934E-02 2.621716237916714931E+00
pair_coeff 37    40   5.658958721306098921E-02 3.003251098425550492E+00
pair_coeff 38   40   4.492103907914993949E-02 2.799891255752950503E+00
pair_coeff 39  40   7.712993371945030263E-02 2.820082387646319688E+00
pair_coeff 40   40   1.974960730563848910E-02 2.202188219488486975E+00
pair_coeff 1      41  3.078683944880841739E-01 3.134598379462572915E+00
pair_coeff 2     41  3.575292004274581159E-01 3.057436901376735072E+00
pair_coeff 3     41  2.798803586255310671E-01 3.184789154237201991E+00
pair_coeff 4     41  2.798803586255310671E-01 3.184789154237201991E+00
pair_coeff 5     41  2.194946639681157330E-01 3.357017019574562333E+00
pair_coeff 6      41  2.177367888418141884E-01 3.341511841098447899E+00
pair_coeff 7     41  2.177367888418141884E-01 3.341511841098447899E+00
pair_coeff 8     41  2.177367888418141884E-01 3.341511841098447899E+00
pair_coeff 9     41  2.177367888418141884E-01 3.341511841098447899E+00
pair_coeff 10     41  2.177367888418141884E-01 3.341511841098447899E+00
pair_coeff 11     41  2.177367888418141884E-01 3.341511841098447899E+00
pair_coeff 12      41  1.433735664130799115E-01 3.570551028367321855E+00
pair_coeff 13    41  2.276764142074000352E-02 4.861717010354688284E+00
pair_coeff 14    41  8.385328863556677781E-02 4.227062551711202154E+00
pair_coeff 15    41  1.744176359738121573E-01 3.806622052678410917E+00
pair_coeff 16    41  2.534887038728330655E-01 3.652727543314932213E+00
pair_coeff 17    41  3.059985559650827969E-01 3.634178042443301226E+00
pair_coeff 18   41  1.884537393671708305E-01 3.752157829525465615E+00
pair_coeff 19    41  1.929958963334948985E-01 3.649447990618651438E+00
pair_coeff 20     41  9.365952658314305457E-02 2.906754988123776862E+00
pair_coeff 21      41  0.000000000000000000E+00 0.000000000000000000E+00
pair_coeff 22    41  0.000000000000000000E+00 0.000000000000000000E+00
pair_coeff 23      41  3.758009242872520916E-01 3.431506915542800851E+00
pair_coeff 24   41  7.950888758614560459E-01 2.324959475233958628E+00
pair_coeff 25   41  7.950888758614560459E-01 2.324959475233958628E+00
pair_coeff 26     41  0.000000000000000000E+00 0.000000000000000000E+00
pair_coeff 27   41  5.858420401700457081E-01 2.446364943686976545E+00
pair_coeff 28   41  1.522088994832513364E-01 2.623398911666701139E+00
pair_coeff 29   41  1.938116246035951340E-01 3.164577152551757422E+00
pair_coeff 30     41  2.717254484239552959E-01 3.484088802129798879E+00
pair_coeff 31      41  1.838060876086547446E-01 3.235194132478707463E+00
pair_coeff 32     41  3.050217950885778517E-01 3.514595987837878077E+00
pair_coeff 33     41  4.651682231981815185E-01 3.605090320820125260E+00
pair_coeff 34   41  2.745508205934842905E-01 3.580536933298883895E+00
pair_coeff 35   41  2.018809144184158522E-01 3.363000088017528810E+00
pair_coeff 36    41  3.975059030310198332E-02 3.333348173589975261E+00
pair_coeff 37    41  2.242149373793861367E-01 3.818445878690444051E+00
pair_coeff 38   41  1.776054487496074863E-01 3.479086156840626831E+00
pair_coeff 39  41  3.047290431444037995E-01 3.499464919472758506E+00
pair_coeff 40   41  7.825038462692963936E-02 2.799944545168011611E+00
pair_coeff 41  41  3.100376933831125448E-01 3.559954315729227936E+00
pair_coeff 1      42  2.517150719017874350E-01 3.216286733597559344E+00
pair_coeff 2     42  2.923180488930291476E-01 3.137114409660223480E+00
pair_coeff 3     42  2.288318835470794788E-01 3.267785491497223305E+00
pair_coeff 4     42  2.288318835470794788E-01 3.267785491497223305E+00
pair_coeff 5     42  1.794601723072659361E-01 3.444501654585188533E+00
pair_coeff 6      42  1.780229229119614787E-01 3.428592407594721170E+00
pair_coeff 7     42  1.780229229119614787E-01 3.428592407594721170E+00
pair_coeff 8     42  1.780229229119614787E-01 3.428592407594721170E+00
pair_coeff 9     42  1.780229229119614787E-01 3.428592407594721170E+00
pair_coeff 10     42  1.780229229119614787E-01 3.428592407594721170E+00
pair_coeff 11     42  1.780229229119614787E-01 3.428592407594721170E+00
pair_coeff 12      42  1.172230999498745652E-01 3.663600408719620116E+00
pair_coeff 13    42  1.861496210673063006E-02 4.988414472922134912E+00
pair_coeff 14    42  6.855895881485152277E-02 4.337220773235620719E+00
pair_coeff 15    42  1.426049200441300291E-01 3.905823498176049124E+00
pair_coeff 16    42  2.072539060975635561E-01 3.747918462531858008E+00
pair_coeff 17    42  2.501862805523388245E-01 3.728885557404626905E+00
pair_coeff 18   42  1.540809235512614617E-01 3.849939924851243589E+00
pair_coeff 19    42  1.577946187139902257E-01 3.744553443938634096E+00
pair_coeff 20     42  7.657659860592054557E-02 2.982505691119483604E+00
pair_coeff 21      42  0.000000000000000000E+00 0.000000000000000000E+00
pair_coeff 22    42  0.000000000000000000E+00 0.000000000000000000E+00
pair_coeff 23      42  3.072571214561132247E-01 3.520932774360979955E+00
pair_coeff 24   42  6.500695009260647472E-01 2.385548453460561547E+00
pair_coeff 25   42  6.500695009260647472E-01 2.385548453460561547E+00
pair_coeff 26     42  0.000000000000000000E+00 0.000000000000000000E+00
pair_coeff 27   42  4.789880153488779158E-01 2.510117776321816319E+00
pair_coeff 28   42  1.244469220077783211E-01 2.691765290191502125E+00
pair_coeff 29   42  1.584615631091823018E-01 3.247046760402909182E+00
pair_coeff 30     42  2.221643793651205678E-01 3.574884956996347896E+00
pair_coeff 31      42  1.502809752047785663E-01 3.319504035055336644E+00
pair_coeff 32     42  2.493876749186909880E-01 3.606187166974876845E+00
pair_coeff 33     42  3.803243686103310317E-01 3.699039803071263677E+00
pair_coeff 34   42  2.244744208358758208E-01 3.673846548628572073E+00
pair_coeff 35   42  1.650590635421556873E-01 3.450640643166755339E+00
pair_coeff 36    42  3.250032440946476475E-02 3.420215993034873669E+00
pair_coeff 37    42  1.833194965587523484E-01 3.917955455811204413E+00
pair_coeff 38   42  1.452112951590650569E-01 3.569751941621275737E+00
pair_coeff 39  42  2.491483191485096838E-01 3.590661779490871286E+00
pair_coeff 40   42  6.397799041847561374E-02 2.872911743474042101E+00
pair_coeff 41  42  2.534887038728330655E-01 3.652727543314932213E+00
pair_coeff 42  42  2.072539060975635561E-01 3.747918462531858008E+00
pair_coeff 1      43  3.540045720962458620E-01 2.694267436109534231E+00
pair_coeff 2     43  4.111073883361350823E-01 2.627945173235017418E+00
pair_coeff 3     43  2.223108962183115156E-01 2.911490578234520399E+00
pair_coeff 4     43  3.218223382693144452E-01 2.737407690042663599E+00
pair_coeff 5     43  1.944751755089789147E-01 3.013558317663839858E+00
pair_coeff 6      43  1.512164790871689257E-01 3.123905428815852758E+00
pair_coeff 7     43  1.305838306072752142E-01 3.201224736341582222E+00
pair_coeff 8     43  9.576715086909036445E-02 3.371022389085928772E+00
pair_coeff 9     43  1.595945784173651294E-01 3.095955496253500083E+00
pair_coeff 10     43  1.367847387646038970E-01 3.176567760880071756E+00
pair_coeff 11     43  1.480915417673231704E-01 3.134796518078508232E+00
pair_coeff 12      43  1.648590726968548470E-01 3.068979881992677683E+00
pair_coeff 13    43  2.617952769134209573E-02 4.178770049266796960E+00
pair_coeff 14    43  9.641927555329404820E-02 3.633268318548095621E+00
pair_coeff 15    43  2.005553077041754007E-01 3.271888962013142610E+00
pair_coeff 16    43  2.914757141438480414E-01 3.139612697248032713E+00
pair_coeff 17    43  3.518545255241552483E-01 3.123668927072572821E+00
pair_coeff 18   43  2.166948168731066826E-01 3.225075569957748023E+00
pair_coeff 19    43  2.219176470240586396E-01 3.136793837871186597E+00
pair_coeff 20     43  1.076950451050141949E-01 2.498430216949698135E+00
pair_coeff 21      43  0.000000000000000000E+00 0.000000000000000000E+00
pair_coeff 22    43  0.000000000000000000E+00 0.000000000000000000E+00
pair_coeff 23      43  4.321172545720066149E-01 2.949467912669808012E+00
pair_coeff 24   43  2.241432820636522216E-01 2.525979396632042295E+00
pair_coeff 25   43  1.232760656668827753E-01 2.790643100279648792E+00
pair_coeff 26     43  0.000000000000000000E+00 0.000000000000000000E+00
pair_coeff 27   43  5.190637964627597967E-01 2.196075677037649054E+00
pair_coeff 28   43  1.348590981935383903E-01 2.354997178955427373E+00
pair_coeff 29   43  1.717196629251071804E-01 2.840807104746190692E+00
pair_coeff 30     43  3.124453591831943267E-01 2.994663388329067644E+00
pair_coeff 31      43  2.113506828162100282E-01 2.780732057331203322E+00
pair_coeff 32     43  3.507313903718691228E-01 3.020885094292788509E+00
pair_coeff 33     43  5.348768524286334758E-01 3.098667286775234508E+00
pair_coeff 34   43  3.156941326324790298E-01 3.077563022548567950E+00
pair_coeff 35   43  1.788691604327004581E-01 3.018929254291899511E+00
pair_coeff 36    43  3.521954878549677509E-02 2.992311047462213214E+00
pair_coeff 37    43  2.578150741863444728E-01 3.282051842720017820E+00
pair_coeff 38   43  2.042208359552802888E-01 2.990363486821641992E+00
pair_coeff 39  43  3.503947675532131378E-01 3.007879554241217335E+00
pair_coeff 40   43  8.997673818477992802E-02 2.406623910860338000E+00
pair_coeff 41  43  3.564989552184898436E-01 3.059871736599097503E+00
pair_coeff 42  43  2.914757141438480414E-01 3.139612697248032713E+00
pair_coeff 43  43  4.099227538595709985E-01 2.630037976349726581E+00
pair_coeff 1      44   1.289710283612314212E-01 3.227417274371960687E+00
pair_coeff 2     44   1.497747397064584929E-01 3.147970960317207023E+00
pair_coeff 3     44   1.172463894193012807E-01 3.279094253018750571E+00
pair_coeff 4     44   1.172463894193012807E-01 3.279094253018750571E+00
pair_coeff 5     44   9.194984947656417718E-02 3.456421974285966314E+00
pair_coeff 6      44   9.121344727734942426E-02 3.440457670474703633E+00
pair_coeff 7     44   9.121344727734942426E-02 3.440457670474703633E+00
pair_coeff 8     44   9.121344727734942426E-02 3.440457670474703633E+00
pair_coeff 9     44   9.121344727734942426E-02 3.440457670474703633E+00
pair_coeff 10     44   9.121344727734942426E-02 3.440457670474703633E+00
pair_coeff 11     44   9.121344727734942426E-02 3.440457670474703633E+00
pair_coeff 12      44   6.006149585721085732E-02 3.676278959205930619E+00
pair_coeff 13    44   9.537731641064108729E-03 5.005677781603687038E+00
pair_coeff 14    44   3.512749298213131699E-02 4.352230508580356094E+00
pair_coeff 15    44   7.306635652965057237E-02 3.919340305384166889E+00
pair_coeff 16    44   1.061905002323981356E-01 3.760888810862612175E+00
pair_coeff 17    44   1.281877228920814960E-01 3.741790038931789741E+00
pair_coeff 18   44   7.894630627842579018E-02 3.863263336867006181E+00
pair_coeff 19    44   8.084908897847854770E-02 3.757512147015167780E+00
pair_coeff 20     44   3.923548397794881376E-02 2.992827190399418136E+00
pair_coeff 21      44   0.000000000000000000E+00 0.000000000000000000E+00
pair_coeff 22    44   0.000000000000000000E+00 0.000000000000000000E+00
pair_coeff 23      44   1.574290590790217992E-01 3.533117597747393646E+00
pair_coeff 24   44   3.330755342032887256E-01 2.393804074470089471E+00
pair_coeff 25   44   3.330755342032887256E-01 2.393804074470089471E+00
pair_coeff 26     44   0.000000000000000000E+00 0.000000000000000000E+00
pair_coeff 27   44   2.454186650227814237E-01 2.518804491957598035E+00
pair_coeff 28   44   6.376275916443908953E-02 2.701080629836012825E+00
pair_coeff 29   44   8.119081068730508999E-02 3.258283751802188988E+00
pair_coeff 30     44   1.138301662092522648E-01 3.587256491649024159E+00
pair_coeff 31      44   7.699933011103650415E-02 3.330991777931932241E+00
pair_coeff 32     44   1.277785420311642051E-01 3.618667028575163869E+00
pair_coeff 33     44   1.948664597630800355E-01 3.711840997978461676E+00
pair_coeff 34   44   1.150137601108388863E-01 3.686560557731444199E+00
pair_coeff 35   44   8.457116613851239917E-02 3.462582207945594348E+00
pair_coeff 36    44   1.665216242115909184E-02 3.432052267820347335E+00
pair_coeff 37    44   9.392724802379077975E-02 3.931514247848511001E+00
pair_coeff 38   44   7.440178263794279545E-02 3.582105712547747789E+00
pair_coeff 39  44   1.276559035272747666E-01 3.603087912685470684E+00
pair_coeff 40   44   3.278034626379167787E-02 2.882853973116679569E+00
pair_coeff 41  44   1.298797826027309477E-01 3.665368466287981519E+00
pair_coeff 42  44   1.061905002323981356E-01 3.760888810862612175E+00
pair_coeff 43  44   1.493431533973610947E-01 3.150477893680148966E+00
pair_coeff 44   44   5.440873251526867627E-02 3.773904045424884668E+00
pair_coeff 1      45  2.876124418215142975E-01 3.084725325848334254E+00
pair_coeff 2     45  3.340058550940822601E-01 3.008791526102005953E+00
pair_coeff 3     45  2.614658562013765786E-01 3.134117539883036763E+00
pair_coeff 4     45  2.614658562013765786E-01 3.134117539883036763E+00
pair_coeff 5     45  2.050531896125046272E-01 3.303605172335025486E+00
pair_coeff 6      45  2.034109724621096793E-01 3.288346689130147382E+00
pair_coeff 7     45  2.034109724621096793E-01 3.288346689130147382E+00
pair_coeff 8     45  2.034109724621096793E-01 3.288346689130147382E+00
pair_coeff 9     45  2.034109724621096793E-01 3.288346689130147382E+00
pair_coeff 10     45  2.034109724621096793E-01 3.288346689130147382E+00
pair_coeff 11     45  2.034109724621096793E-01 3.288346689130147382E+00
pair_coeff 12      45  1.339404182663543053E-01 3.513741746503062924E+00
pair_coeff 13    45  2.126966281947830981E-02 4.784364621384128213E+00
pair_coeff 14    45  7.833622915187883617E-02 4.159807837788846996E+00
pair_coeff 15    45  1.629419683127158180E-01 3.746056760816388831E+00
pair_coeff 16    45  2.368106190837268310E-01 3.594610791325419719E+00
pair_coeff 17    45  2.858656278157876152E-01 3.576356422441845595E+00
pair_coeff 18   45  1.760545776058381751E-01 3.692459091139371985E+00
pair_coeff 19    45  1.802978870185932558E-01 3.591383417979618908E+00
pair_coeff 20     45  8.749727358411062139E-02 2.860507038684394931E+00
pair_coeff 21      45  0.000000000000000000E+00 0.000000000000000000E+00
pair_coeff 22    45  0.000000000000000000E+00 0.000000000000000000E+00
pair_coeff 23      45  3.510754056218069463E-01 3.376909896193278637E+00
pair_coeff 24   45  7.427766446499820541E-01 2.287968188146278781E+00
pair_coeff 25   45  7.427766446499820541E-01 2.287968188146278781E+00
pair_coeff 26     45  0.000000000000000000E+00 0.000000000000000000E+00
pair_coeff 27   45  5.472970357193517321E-01 2.407442033882686516E+00
pair_coeff 28   45  1.421944377243884450E-01 2.581659301440933696E+00
pair_coeff 29   45  1.810599451051872477E-01 3.114227121418688515E+00
pair_coeff 30     45  2.538474917381768337E-01 3.428655178235952672E+00
pair_coeff 31      45  1.717127143456437521E-01 3.183720549298572955E+00
pair_coeff 32     45  2.849531321332268163E-01 3.458676979111828587E+00
pair_coeff 33     45  4.345628551909777593E-01 3.547731501255731335E+00
pair_coeff 34   45  2.564869708249599145E-01 3.523568770611071432E+00
pair_coeff 35   45  1.885983225059109647E-01 3.309493047117717079E+00
pair_coeff 36    45  3.713523227979241559E-02 3.280312909721536219E+00
pair_coeff 37    45  2.094628964423923267E-01 3.757692463746214351E+00
pair_coeff 38   45  1.659200415184466093E-01 3.423732127576304407E+00
pair_coeff 39  45  2.846796415670648783E-01 3.443786653735909642E+00
pair_coeff 40   45  7.310196369278490480E-02 2.755396004170551638E+00
pair_coeff 41  45  2.896390134456565679E-01 3.503313632949622392E+00
pair_coeff 42  45  2.368106190837268310E-01 3.594610791325419719E+00
pair_coeff 43  45  3.330433940375682744E-01 3.011187621858291141E+00
pair_coeff 44   45  1.213344470767514366E-01 3.607050590788261513E+00
pair_coeff 45  45  2.705824481996443320E-01 3.447574132224956678E+00
pair_coeff 1      46   1.591939588900956049E-01 2.914305969007454422E+00
pair_coeff 2     46   1.848727893277152534E-01 2.842567223260527687E+00
pair_coeff 3     46   1.297424277832890105E-01 3.015383630983031082E+00
pair_coeff 4     46   1.447217808091778302E-01 2.960969450834395111E+00
pair_coeff 5     46   1.134972772065044738E-01 3.121093535396749274E+00
pair_coeff 6      46   8.825115390810175930E-02 3.235378250992776650E+00
pair_coeff 7     46   7.620977424152966528E-02 3.315456605363892528E+00
pair_coeff 8     46   5.589047980555466449E-02 3.491313283895585595E+00
pair_coeff 9     46   9.314068008877877947E-02 3.206430958576428125E+00
pair_coeff 10     46   7.982867413568051074E-02 3.289919775276922032E+00
pair_coeff 11     46   8.642741534447667684E-02 3.246657975726112255E+00
pair_coeff 12      46   7.413624147890124361E-02 3.319620862051439580E+00
pair_coeff 13    46   1.177279330145077942E-02 4.520046649590542032E+00
pair_coeff 14    46   4.335923148605760197E-02 3.929994255893134447E+00
pair_coeff 15    46   9.018864705840204388E-02 3.539101354278793465E+00
pair_coeff 16    46   1.310750665736078457E-01 3.396022199330606561E+00
pair_coeff 17    46   1.582270944691577808E-01 3.378776314988137131E+00
pair_coeff 18   46   9.744649783680001121E-02 3.488464752259239798E+00
pair_coeff 19    46   9.979517656548757276E-02 3.392973126102896142E+00
pair_coeff 20     46   4.842988462435294378E-02 2.702474890510119909E+00
pair_coeff 21      46   0.000000000000000000E+00 0.000000000000000000E+00
pair_coeff 22    46   0.000000000000000000E+00 0.000000000000000000E+00
pair_coeff 23      46   1.943208135778947410E-01 3.190348451711801925E+00
pair_coeff 24   46   1.308118229063097715E-01 2.616115944782948066E+00
pair_coeff 25   46   7.194490382282986429E-02 2.890223855576281586E+00
pair_coeff 26     46   0.000000000000000000E+00 0.000000000000000000E+00
pair_coeff 27   46   3.029298080889223921E-01 2.274440006244081047E+00
pair_coeff 28   46   7.870485480438377257E-02 2.439032431538718626E+00
pair_coeff 29   46   1.002169769679346900E-01 2.942177902435911818E+00
pair_coeff 30     46   1.405050035672634479E-01 3.239235003477465291E+00
pair_coeff 31      46   9.504326939170110178E-02 3.007832082398090190E+00
pair_coeff 32     46   1.577220266102814239E-01 3.267598213893569081E+00
pair_coeff 33     46   2.405312540247006858E-01 3.351732811965022041E+00
pair_coeff 34   46   1.419659595765774829E-01 3.328904980405696268E+00
pair_coeff 35   46   1.043894812394069449E-01 3.126656127462947410E+00
pair_coeff 36    46   2.055441205353729026E-02 3.099088081816367968E+00
pair_coeff 37    46   1.159380571788471426E-01 3.550094228820277475E+00
pair_coeff 38   46   9.183701546862199638E-02 3.234583932666422079E+00
pair_coeff 39  46   1.575706491327610870E-01 3.253530522433367267E+00
pair_coeff 40   46   4.046205695828821586E-02 2.603170841386070578E+00
pair_coeff 41  46   1.603156696122686187E-01 3.309768862160356484E+00
pair_coeff 42  46   1.310750665736078457E-01 3.396022199330606561E+00
pair_coeff 43  46   1.843400655522983711E-01 2.844830943827911796E+00
pair_coeff 44   46   6.715881572284602974E-02 3.407774747126039561E+00
pair_coeff 45  46   1.497678294522704623E-01 3.257108757122733511E+00
pair_coeff 46   46   8.289673956344170702E-02 3.077165870507050371E+00
pair_coeff 1      47   1.722085049816445279E-01 3.045791995942584762E+00
pair_coeff 2     47   1.999866507741778487E-01 2.970816581583684446E+00
pair_coeff 3     47   1.565531863469495633E-01 3.094560814646859725E+00
pair_coeff 4     47   1.565531863469495633E-01 3.094560814646859725E+00
pair_coeff 5     47   1.227759932819626476E-01 3.261909288109908545E+00
pair_coeff 6      47   1.217927125916918318E-01 3.246843387225244904E+00
pair_coeff 7     47   1.217927125916918318E-01 3.246843387225244904E+00
pair_coeff 8     47   1.217927125916918318E-01 3.246843387225244904E+00
pair_coeff 9     47   1.217927125916918318E-01 3.246843387225244904E+00
pair_coeff 10     47   1.217927125916918318E-01 3.246843387225244904E+00
pair_coeff 11     47   1.217927125916918318E-01 3.246843387225244904E+00
pair_coeff 12      47   8.019708410451541203E-02 3.469393659665676477E+00
pair_coeff 13    47   1.273525168942131643E-02 4.723979586569880595E+00
pair_coeff 14    47   4.690396848866595220E-02 4.107305538950095425E+00
pair_coeff 15    47   9.756181820295757590E-02 3.698776550000724583E+00
pair_coeff 16    47   1.417908155082314992E-01 3.549242029754096084E+00
pair_coeff 17    47   1.711625967222450972E-01 3.531218055246321708E+00
pair_coeff 18   47   1.054130183404619059E-01 3.645855354088885392E+00
pair_coeff 19    47   1.079537080460851450E-01 3.546055390145638864E+00
pair_coeff 20     47   5.238916153439685669E-02 2.824403641308426582E+00
pair_coeff 21      47   0.000000000000000000E+00 0.000000000000000000E+00
pair_coeff 22    47   0.000000000000000000E+00 0.000000000000000000E+00
pair_coeff 23      47   2.102070771175983122E-01 3.334288809009665400E+00
pair_coeff 24   47   4.447389504444150266E-01 2.259090991354548272E+00
pair_coeff 25   47   4.447389504444150266E-01 2.259090991354548272E+00
pair_coeff 26     47   0.000000000000000000E+00 0.000000000000000000E+00
pair_coeff 27   47   3.276951570843523731E-01 2.377056918505081384E+00
pair_coeff 28   47   8.513919419528666321E-02 2.549075332798732774E+00
pair_coeff 29   47   1.084099917971301230E-01 3.074921439676577162E+00
pair_coeff 30     47   1.519916759119208927E-01 3.385380996878945226E+00
pair_coeff 31      47   1.028133193283557872E-01 3.143537768214339501E+00
pair_coeff 32     47   1.706162381700878361E-01 3.415023882760973351E+00
pair_coeff 33     47   2.601953487792239561E-01 3.502954418577414852E+00
pair_coeff 34   47   1.535720691125297410E-01 3.479096653679860207E+00
pair_coeff 35   47   1.129236098240292002E-01 3.267722850094167519E+00
pair_coeff 36    47   2.223479204358534689E-02 3.238911004781051872E+00
pair_coeff 37    47   1.254163137624429714E-01 3.710265394908199177E+00
pair_coeff 38   47   9.934494528618387221E-02 3.380520081656078979E+00
pair_coeff 39  47   1.704524851654297402E-01 3.400321493064580203E+00
pair_coeff 40   47   4.376994193654968474E-02 2.720619247630047699E+00
pair_coeff 41  47   1.734219186553421499E-01 3.459097162753066002E+00
pair_coeff 42  47   1.417908155082314992E-01 3.549242029754096084E+00
pair_coeff 43  47   1.994103753578723159E-01 2.973182435429682080E+00
pair_coeff 44   47   7.264923450991972453E-02 3.561524822428556725E+00
pair_coeff 45  47   1.620117634119973837E-01 3.404061168545596594E+00
pair_coeff 46   47   8.967377711819192465E-02 3.215999719401493095E+00
pair_coeff 47   47   9.700485622222822235E-02 3.361097396249958624E+00
pair_coeff 1      48  1.891372059020736129E-01 3.289260052245521315E+00
pair_coeff 2     48  2.196460409964854366E-01 3.208291412338459381E+00
pair_coeff 3     48  1.719429144564305345E-01 3.341927249274361689E+00
pair_coeff 4     48  1.719429144564305345E-01 3.341927249274361689E+00
pair_coeff 5     48  1.348453046710865466E-01 3.522652869835305456E+00
pair_coeff 6      48  1.337653640351980922E-01 3.506382662940996653E+00
pair_coeff 7     48  1.337653640351980922E-01 3.506382662940996653E+00
pair_coeff 8     48  1.337653640351980922E-01 3.506382662940996653E+00
pair_coeff 9     48  1.337653640351980922E-01 3.506382662940996653E+00
pair_coeff 10     48  1.337653640351980922E-01 3.506382662940996653E+00
pair_coeff 11     48  1.337653640351980922E-01 3.506382662940996653E+00
pair_coeff 12      48  8.808073916348332921E-02 3.746722686727856910E+00
pair_coeff 13    48  1.398717166294168902E-02 5.101595040773273304E+00
pair_coeff 14    48  5.151479334084436285E-02 4.435626611939518682E+00
pair_coeff 15    48  1.071524876172654656E-01 3.994441499717314326E+00
pair_coeff 16    48  1.557293507115795339E-01 3.832953806357374926E+00
pair_coeff 17    48  1.879884811870324024E-01 3.813489069628770434E+00
pair_coeff 18   48  1.157754883055521766E-01 3.937290001564532460E+00
pair_coeff 19    48  1.185659367333865843E-01 3.829512439915094824E+00
pair_coeff 20     48  5.753920012965894198E-02 3.050174825184523542E+00
pair_coeff 21      48  0.000000000000000000E+00 0.000000000000000000E+00
pair_coeff 22    48  0.000000000000000000E+00 0.000000000000000000E+00
pair_coeff 23      48  2.308711711486143847E-01 3.600818111261308019E+00
pair_coeff 24   48  4.884583514144283378E-01 2.439673412415888976E+00
pair_coeff 25   48  4.884583514144283378E-01 2.439673412415888976E+00
pair_coeff 26     48  0.000000000000000000E+00 0.000000000000000000E+00
pair_coeff 27   48  3.599087420518621294E-01 2.567069049484753673E+00
pair_coeff 28   48  9.350867603529200434E-02 2.752837906695117631E+00
pair_coeff 29   48  1.190670747798516088E-01 3.320717983629539294E+00
pair_coeff 30     48  1.669329915233766226E-01 3.655994398008439283E+00
pair_coeff 31      48  1.129202297491380125E-01 3.394819218609366196E+00
pair_coeff 32     48  1.873884136701188530E-01 3.688006813989214816E+00
pair_coeff 33     48  2.857734654979058875E-01 3.782966154357451316E+00
pair_coeff 34   48  1.686687429267214045E-01 3.757201298084295260E+00
pair_coeff 35   48  1.240243973128351274E-01 3.528931143998987441E+00
pair_coeff 36    48  2.442055020096505283E-02 3.497816198544354993E+00
pair_coeff 37    48  1.377451779288986211E-01 4.006848715525531901E+00
pair_coeff 38   48  1.091109023559897889E-01 3.650744921261102061E+00
pair_coeff 39  48  1.872085631699220987E-01 3.672129175869041973E+00
pair_coeff 40   48  4.807268097041665633E-02 2.938094334912183747E+00
pair_coeff 41  48  1.904699024019997078E-01 3.735603130297924235E+00
pair_coeff 42  48  1.557293507115795339E-01 3.832953806357374926E+00
pair_coeff 43  48  2.190131156825951553E-01 3.210846382788003606E+00
pair_coeff 44   48  7.979090944198904967E-02 3.846218434844132616E+00
pair_coeff 45  48  1.779380888201725353E-01 3.676167785591720083E+00
pair_coeff 46   48  9.848902438719817076E-02 3.473073479460133228E+00
pair_coeff 47   48  1.065407743175067756E-01 3.629769666450928245E+00
pair_coeff 48  48  1.170141066563726712E-01 3.919918490367800601E+00
pair_coeff 1      49   2.491558874764578380E-01 2.855793572536012626E+00
pair_coeff 2     49   2.893460544378792521E-01 2.785495171755656862E+00
pair_coeff 3     49   2.030610329881481768E-01 2.954841833242532800E+00
pair_coeff 4     49   2.265053522513252593E-01 2.901520161607548776E+00
pair_coeff 5     49   1.776356026680076250E-01 3.058429331874637391E+00
pair_coeff 6      49   1.762129657718276565E-01 3.044303251377937780E+00
pair_coeff 7     49   1.192765986091082336E-01 3.248890049401691016E+00
pair_coeff 8     49   1.762129657718276565E-01 3.044303251377937780E+00
pair_coeff 9     49   1.457753106303604218E-01 3.142053380689358466E+00
pair_coeff 10     49   1.762129657718276565E-01 3.044303251377937780E+00
pair_coeff 11     49   1.762129657718276565E-01 3.044303251377937780E+00
pair_coeff 12      49   1.160312939550487005E-01 3.252970697627771912E+00
pair_coeff 13    49   1.842570398745426927E-02 4.429294764084048097E+00
pair_coeff 14    49   6.786192061888589311E-02 3.851089232029210496E+00
pair_coeff 15    49   1.411550573577402545E-01 3.468044538763741080E+00
pair_coeff 16    49   2.051467578661674285E-01 3.327838076089515873E+00
pair_coeff 17    49   2.476426393321955743E-01 3.310938448465757133E+00
pair_coeff 18   49   1.525143844607987631E-01 3.418424600390641999E+00
pair_coeff 19    49   1.561903225248004456E-01 3.324850221067261025E+00
pair_coeff 20     49   7.579804515254030817E-02 2.648215562927745292E+00
pair_coeff 21      49   0.000000000000000000E+00 0.000000000000000000E+00
pair_coeff 22    49   0.000000000000000000E+00 0.000000000000000000E+00
pair_coeff 23      49   3.041332416110918979E-01 3.126293772665116322E+00
pair_coeff 24   49   6.434602513106866262E-01 2.118167472197251655E+00
pair_coeff 25   49   6.434602513106866262E-01 2.118167472197251655E+00
pair_coeff 26     49   0.000000000000000000E+00 0.000000000000000000E+00
pair_coeff 27   49   4.741181493550025716E-01 2.228774610499382636E+00
pair_coeff 28   49   1.231816714918823885E-01 2.390062407746226469E+00
pair_coeff 29   49   1.568504861035088516E-01 2.883105903219756350E+00
pair_coeff 30     49   2.199056365125826029E-01 3.174198797669536276E+00
pair_coeff 31      49   1.487530701482332185E-01 2.947441901958409272E+00
pair_coeff 32     49   2.468521531134249269E-01 3.201992541656678348E+00
pair_coeff 33     49   3.764576148503470665E-01 3.284437915256962270E+00
pair_coeff 34   49   2.221921918165813414E-01 3.262068412762940017E+00
pair_coeff 35   49   1.633809098206280841E-01 3.063880240200058669E+00
pair_coeff 36    49   3.216989396118666994E-02 3.036865695947625898E+00
pair_coeff 37    49   1.814556892113898812E-01 3.478816702288478169E+00
pair_coeff 38   49   1.437349334849495619E-01 3.169641109400411327E+00
pair_coeff 39  49   2.466152308707815766E-01 3.188207296291331261E+00
pair_coeff 40   49   6.332752687886390730E-02 2.550905305106105025E+00
pair_coeff 41  49   2.509114869503538681E-01 3.243316502678857738E+00
pair_coeff 42  49   2.051467578661674285E-01 3.327838076089515873E+00
pair_coeff 43  49   2.223108962183115156E-01 2.911490578234520399E+00
pair_coeff 44   49   1.051108625600908064E-01 3.339354660419386889E+00
pair_coeff 45  49   2.344029680696937956E-01 3.191713688460029452E+00
pair_coeff 46   49   1.297424277832890105E-01 3.015383630983031082E+00
pair_coeff 47   49   1.403492298138912242E-01 3.151430023345263898E+00
pair_coeff 48  49   1.541460520799295686E-01 3.403342348080735658E+00
pair_coeff 49   49   2.030610329881481768E-01 2.954841833242532800E+00
pair_coeff 1      50  1.791876903161000734E-01 3.217141909372776443E+00
pair_coeff 2     50  2.080916157427709912E-01 3.137948534372799969E+00
pair_coeff 3     50  1.628979002873637005E-01 3.268654360233876233E+00
pair_coeff 4     50  1.628979002873637005E-01 3.268654360233876233E+00
pair_coeff 5     50  1.277518010205411225E-01 3.445417510233855118E+00
pair_coeff 6      50  1.267286703926965574E-01 3.429504033147082964E+00
pair_coeff 7     50  1.267286703926965574E-01 3.429504033147082964E+00
pair_coeff 8     50  1.267286703926965574E-01 3.429504033147082964E+00
pair_coeff 9     50  1.267286703926965574E-01 3.429504033147082964E+00
pair_coeff 10     50  1.267286703926965574E-01 3.429504033147082964E+00
pair_coeff 11     50  1.267286703926965574E-01 3.429504033147082964E+00
pair_coeff 12      50  8.344727382835046003E-02 3.664574520351796316E+00
pair_coeff 13    50  1.325137998303192385E-02 4.989740838251888633E+00
pair_coeff 14    50  4.880487047395847683E-02 4.338373993220113078E+00
pair_coeff 15    50  1.015157577071503781E-01 3.906862014301811126E+00
pair_coeff 16    50  1.475372470231036959E-01 3.748914993420465080E+00
pair_coeff 17    50  1.780993939784465407E-01 3.729877027650093879E+00
pair_coeff 18   50  1.096851475929681435E-01 3.850963582140682906E+00
pair_coeff 19    50  1.123288051765993917E-01 3.745549080105277095E+00
pair_coeff 20     50  5.451236484485043332E-02 2.983298707049888421E+00
pair_coeff 21      50  0.000000000000000000E+00 0.000000000000000000E+00
pair_coeff 22    50  0.000000000000000000E+00 0.000000000000000000E+00
pair_coeff 23      50  2.187262507204020268E-01 3.521868952215817750E+00
pair_coeff 24   50  4.627631215556714528E-01 2.386182744932990651E+00
pair_coeff 25   50  4.627631215556714528E-01 2.386182744932990651E+00
pair_coeff 26     50  0.000000000000000000E+00 0.000000000000000000E+00
pair_coeff 27   50  3.409758323607505748E-01 2.510785189426758102E+00
pair_coeff 28   50  8.858967543358814423E-02 2.692481001401170193E+00
pair_coeff 29   50  1.128035809810071233E-01 3.247910114935789849E+00
pair_coeff 30     50  1.581515231017961709E-01 3.575835480151661638E+00
pair_coeff 31      50  1.069800892014212690E-01 3.320386655192049563E+00
pair_coeff 32     50  1.775308928637313044E-01 3.607146013048481148E+00
pair_coeff 33     50  2.707404235563790063E-01 3.700023337654205324E+00
pair_coeff 34   50  1.597959657350944140E-01 3.674823384598274068E+00
pair_coeff 35   50  1.175001247974426788E-01 3.451558131105934013E+00
pair_coeff 36    50  2.313591324292333176E-02 3.421125391389411519E+00
pair_coeff 37    50  1.304991271682363063E-01 3.918997197692981160E+00
pair_coeff 38   50  1.033711505265553082E-01 3.570701099963447422E+00
pair_coeff 39  50  1.773605033542809684E-01 3.591616497532251984E+00
pair_coeff 40   50  4.554382956704794427E-02 2.873675619561858241E+00
pair_coeff 41  50  1.804502806487379984E-01 3.653698763970068875E+00
pair_coeff 42  50  1.475372470231036959E-01 3.748914993420465080E+00
pair_coeff 43  50  2.074919853073012854E-01 3.140447486228195473E+00
pair_coeff 44   50  7.559352853363882074E-02 3.761888790426231033E+00
pair_coeff 45  50  1.685776999976196511E-01 3.595566559366237147E+00
pair_coeff 46   50  9.330803380147963122E-02 3.396925164817679033E+00
pair_coeff 47   50  1.009362234330945657E-01 3.550185734733046772E+00
pair_coeff 48  50  1.108586087340911325E-01 3.833972947222050731E+00
pair_coeff 49   50  1.460372374214344571E-01 3.328722912157391800E+00
pair_coeff 50  50  1.050269192461420475E-01 3.749911789275832241E+00
pair_coeff 1      51  2.533852259367075921E-01 2.858274758416932571E+00
pair_coeff 2     51  2.942576076375654770E-01 2.787915280603157520E+00
pair_coeff 3     51  2.065079265987836976E-01 2.957409074764294044E+00
pair_coeff 4     51  2.303502053970068741E-01 2.904041075908715186E+00
pair_coeff 5     51  1.806509080412127821E-01 3.061086572842267373E+00
pair_coeff 6      51  1.404672559692889122E-01 3.173174020534739626E+00
pair_coeff 7     51  1.213012792659237393E-01 3.251712767470937848E+00
pair_coeff 8     51  8.895954313830781168E-02 3.424188379397632431E+00
pair_coeff 9     51  1.482497981251104935E-01 3.144783276351368784E+00
pair_coeff 10     51  1.270613958791100284E-01 3.226666915174094541E+00
pair_coeff 11     51  1.375644548126654931E-01 3.184236878323198461E+00
pair_coeff 12      51  1.180008866429317071E-01 3.255796961067685569E+00
pair_coeff 13    51  1.873847419457483343E-02 4.433143047705374151E+00
pair_coeff 14    51  6.901385418853510367E-02 3.854435156020554309E+00
pair_coeff 15    51  1.435511175872953848E-01 3.471057663811270455E+00
pair_coeff 16    51  2.086290559640636977E-01 3.330729386206531473E+00
pair_coeff 17    51  2.518462909076551459E-01 3.313815075757705841E+00
pair_coeff 18   51  1.551032654961799484E-01 3.421394614377313736E+00
pair_coeff 19    51  1.588416013882605060E-01 3.327738935260058373E+00
pair_coeff 20     51  7.708469180103937057E-02 2.650516399769581533E+00
pair_coeff 21      51  0.000000000000000000E+00 0.000000000000000000E+00
pair_coeff 22    51  0.000000000000000000E+00 0.000000000000000000E+00
pair_coeff 23      51  3.092958024031092212E-01 3.129009975979999414E+00
pair_coeff 24   51  2.082100572999197041E-01 2.565817813773293210E+00
pair_coeff 25   51  1.145129867819162373E-01 2.834655654012085524E+00
pair_coeff 26     51  0.000000000000000000E+00 0.000000000000000000E+00
pair_coeff 27   51  4.821661475142233755E-01 2.230711026404406550E+00
pair_coeff 28   51  1.252726394642434959E-01 2.392138954579879240E+00
pair_coeff 29   51  1.595129710245168642E-01 2.885610818746235928E+00
pair_coeff 30     51  2.236384616749672039E-01 3.176956622085050697E+00
pair_coeff 31      51  1.512781041220645495E-01 2.950002714232202727E+00
pair_coeff 32     51  2.510423864477937528E-01 3.204774513981840212E+00
pair_coeff 33     51  3.828478578635327034E-01 3.287291518213585562E+00
pair_coeff 34   51  2.259638304960239485E-01 3.264902580528488585E+00
pair_coeff 35   51  1.661542465158737936E-01 3.066542217055081565E+00
pair_coeff 36    51  3.271596722949368652E-02 3.039504201881492840E+00
pair_coeff 37    51  1.845358392852482765E-01 3.481839186464868341E+00
pair_coeff 38   51  1.461747862551426580E-01 3.172394973980771304E+00
pair_coeff 39  51  2.508014425287490301E-01 3.190977291645715308E+00
pair_coeff 40   51  6.440249062037527172E-02 2.553121596328082887E+00
pair_coeff 41  51  2.551706261287441935E-01 3.246134378309362578E+00
pair_coeff 42  51  2.086290559640636977E-01 3.330729386206531473E+00
pair_coeff 43  51  2.934096839152270930E-01 2.790135478285444393E+00
pair_coeff 44   51  1.068950845510619613E-01 3.342255976436936837E+00
pair_coeff 45  51  2.383818806215697028E-01 3.194486730256854035E+00
pair_coeff 46   51  1.319447624152647047E-01 3.018003472754054783E+00
pair_coeff 47   51  1.427316113884563031E-01 3.154168065672212862E+00
pair_coeff 48  51  1.567626301313670423E-01 3.406299258224103177E+00
pair_coeff 49   51  2.065079265987836976E-01 2.957409074764294044E+00
pair_coeff 50  51  1.485161710364928667E-01 3.331614991042423313E+00
pair_coeff 51  51  2.100133300839540085E-01 2.959978546770596353E+00
pair_coeff 1      52  2.017250681962091674E-01 3.056690580133286872E+00
pair_coeff 2     52  1.238182113317307792E-01 3.315741788485744745E+00
pair_coeff 3     52  1.857777726664354978E-01 3.098935224280011003E+00
pair_coeff 4     52  1.857777726664354978E-01 3.098935224280011003E+00
pair_coeff 5     52  1.625163928514463119E-01 3.207574185829374258E+00
pair_coeff 6      52  1.263665486179660624E-01 3.325025553250206656E+00
pair_coeff 7     52  1.091245350954258148E-01 3.407322754347013039E+00
pair_coeff 8     52  8.002940155303392422E-02 3.588052148088892501E+00
pair_coeff 9     52  1.333678457168430698E-01 3.295276176356722875E+00
pair_coeff 10     52  1.143064264267728281E-01 3.381078338392825344E+00
pair_coeff 11     52  1.237551431273730129E-01 3.336617821622679614E+00
pair_coeff 12      52  1.061554500800334505E-01 3.411602396114444158E+00
pair_coeff 13    52  1.685742555441499188E-02 4.645290116282322579E+00
pair_coeff 14    52  6.208594665318631356E-02 4.038888287934027765E+00
pair_coeff 15    52  1.291408389420262981E-01 3.637164351620559177E+00
pair_coeff 16    52  1.876859739423346884E-01 3.490120695691245611E+00
pair_coeff 17    52  2.265648769503596782E-01 3.472396954700678773E+00
pair_coeff 18   52  1.395333325541259217E-01 3.585124688068666021E+00
pair_coeff 19    52  1.428963982095136920E-01 3.486987137383879443E+00
pair_coeff 20     52  6.934659887074805240E-02 2.777356268994485955E+00
pair_coeff 21      52  0.000000000000000000E+00 0.000000000000000000E+00
pair_coeff 22    52  0.000000000000000000E+00 0.000000000000000000E+00
pair_coeff 23      52  2.782473593721414562E-01 3.278748048225554435E+00
pair_coeff 24   52  5.886930177039987333E-01 2.221460288218898071E+00
pair_coeff 25   52  5.886930177039987333E-01 2.221460288218898071E+00
pair_coeff 26     52  0.000000000000000000E+00 0.000000000000000000E+00
pair_coeff 27   52  4.337642356672424815E-01 2.337461203423603529E+00
pair_coeff 28   52  1.126972330748762380E-01 2.506614228980403869E+00
pair_coeff 29   52  1.435003728738950268E-01 3.023701078785963059E+00
pair_coeff 30     52  2.011886709474526580E-01 3.328989170351303706E+00
pair_coeff 31      52  9.673967369602196054E-02 3.272112746045770404E+00
pair_coeff 32     52  2.258416718780438259E-01 3.358138281240213630E+00
pair_coeff 33     52  3.444159431332070587E-01 3.444604118245261581E+00
pair_coeff 34   52  2.032806092440548607E-01 3.421143762957048029E+00
pair_coeff 35   52  1.494749685650599014E-01 3.213290908675224156E+00
pair_coeff 36    52  2.943179771656875832E-02 3.184958995335595677E+00
pair_coeff 37    52  1.660113379868037031E-01 3.648461821628244284E+00
pair_coeff 38   52  1.315011324637096746E-01 3.324209225597718920E+00
pair_coeff 39  52  2.256249149459740866E-01 3.343680795916493587E+00
pair_coeff 40   52  5.793749159503105983E-02 2.675300659027595618E+00
pair_coeff 41  52  2.295555011028669046E-01 3.401477412620344865E+00
pair_coeff 42  52  1.876859739423346884E-01 3.490120695691245611E+00
pair_coeff 43  52  2.033892102840210714E-01 3.053469937559857073E+00
pair_coeff 44   52  9.616449617195252375E-02 3.502198888317909375E+00
pair_coeff 45  52  2.144520820837692021E-01 3.347358177927088452E+00
pair_coeff 46   52  1.186995796250189389E-01 3.162429353626820649E+00
pair_coeff 47   52  1.284035983003997405E-01 3.305110072670552235E+00
pair_coeff 48  52  1.410261230297450152E-01 3.569306947024517562E+00
pair_coeff 49   52  1.857777726664354978E-01 3.098935224280011003E+00
pair_coeff 50  52  1.336074789696210519E-01 3.491048680948393823E+00
pair_coeff 51  52  1.889312886718397255E-01 3.101627657794223669E+00
pair_coeff 52  52  1.699655532576562489E-01 3.250055355330133011E+00
pair_coeff 1      53   2.517150719017874350E-01 3.216286733597559344E+00
pair_coeff 2     53   8.204532982457217460E-02 3.877013547662570669E+00
pair_coeff 3     53   2.288318835470794788E-01 3.267785491497223305E+00
pair_coeff 4     53   2.288318835470794788E-01 3.267785491497223305E+00
pair_coeff 5     53   1.794601723072659361E-01 3.444501654585188533E+00
pair_coeff 6      53   1.780229229119614787E-01 3.428592407594721170E+00
pair_coeff 7     53   1.780229229119614787E-01 3.428592407594721170E+00
pair_coeff 8     53   1.780229229119614787E-01 3.428592407594721170E+00
pair_coeff 9     53   1.780229229119614787E-01 3.428592407594721170E+00
pair_coeff 10     53   1.780229229119614787E-01 3.428592407594721170E+00
pair_coeff 11     53   1.780229229119614787E-01 3.428592407594721170E+00
pair_coeff 12      53   1.172230999498745652E-01 3.663600408719620116E+00
pair_coeff 13    53   1.861496210673063006E-02 4.988414472922134912E+00
pair_coeff 14    53   6.855895881485152277E-02 4.337220773235620719E+00
pair_coeff 15    53   1.426049200441300291E-01 3.905823498176049124E+00
pair_coeff 16    53   2.072539060975635561E-01 3.747918462531858008E+00
pair_coeff 17    53   2.501862805523388245E-01 3.728885557404626905E+00
pair_coeff 18   53   1.540809235512614617E-01 3.849939924851243589E+00
pair_coeff 19    53   1.577946187139902257E-01 3.744553443938634096E+00
pair_coeff 20     53   7.657659860592054557E-02 2.982505691119483604E+00
pair_coeff 21      53   0.000000000000000000E+00 0.000000000000000000E+00
pair_coeff 22    53   0.000000000000000000E+00 0.000000000000000000E+00
pair_coeff 23      53   3.072571214561132247E-01 3.520932774360979955E+00
pair_coeff 24   53   6.500695009260647472E-01 2.385548453460561547E+00
pair_coeff 25   53   6.500695009260647472E-01 2.385548453460561547E+00
pair_coeff 26     53   0.000000000000000000E+00 0.000000000000000000E+00
pair_coeff 27   53   4.789880153488779158E-01 2.510117776321816319E+00
pair_coeff 28   53   1.244469220077783211E-01 2.691765290191502125E+00
pair_coeff 29   53   1.584615631091823018E-01 3.247046760402909182E+00
pair_coeff 30     53   2.221643793651205678E-01 3.574884956996347896E+00
pair_coeff 31      53   1.502809752047785663E-01 3.319504035055336644E+00
pair_coeff 32     53   2.493876749186909880E-01 3.606187166974876845E+00
pair_coeff 33     53   3.803243686103310317E-01 3.699039803071263677E+00
pair_coeff 34   53   2.244744208358758208E-01 3.673846548628572073E+00
pair_coeff 35   53   1.650590635421556873E-01 3.450640643166755339E+00
pair_coeff 36    53   3.250032440946476475E-02 3.420215993034873669E+00
pair_coeff 37    53   1.833194965587523484E-01 3.917955455811204413E+00
pair_coeff 38   53   1.452112951590650569E-01 3.569751941621275737E+00
pair_coeff 39  53   2.491483191485096838E-01 3.590661779490871286E+00
pair_coeff 40   53   6.397799041847561374E-02 2.872911743474042101E+00
pair_coeff 41  53   2.534887038728330655E-01 3.652727543314932213E+00
pair_coeff 42  53   2.072539060975635561E-01 3.747918462531858008E+00
pair_coeff 43  53   2.914757141438480414E-01 3.139612697248032713E+00
pair_coeff 44   53   1.061905002323981356E-01 3.760888810862612175E+00
pair_coeff 45  53   2.368106190837268310E-01 3.594610791325419719E+00
pair_coeff 46   53   1.310750665736078457E-01 3.396022199330606561E+00
pair_coeff 47   53   1.417908155082314992E-01 3.549242029754096084E+00
pair_coeff 48  53   1.557293507115795339E-01 3.832953806357374926E+00
pair_coeff 49   53   2.051467578661674285E-01 3.327838076089515873E+00
pair_coeff 50  53   1.475372470231036959E-01 3.748914993420465080E+00
pair_coeff 51  53   2.086290559640636977E-01 3.330729386206531473E+00
pair_coeff 52  53   1.876859739423346884E-01 3.490120695691245611E+00
pair_coeff 53   53   2.072539060975635561E-01 3.747918462531858008E+00
pair_coeff 1      54      5.058019451083491935E-01 3.259627155281799471E+00
pair_coeff 2     54      5.873904832288343592E-01 3.179387960698472515E+00
pair_coeff 3     54      4.598199500984992416E-01 3.311819874282714959E+00
pair_coeff 4     54      4.598199500984992416E-01 3.311819874282714959E+00
pair_coeff 5     54      3.606113195236524960E-01 3.490917340301991079E+00
pair_coeff 6      54      3.577232781590320432E-01 3.474793711469867041E+00
pair_coeff 7     54      3.577232781590320432E-01 3.474793711469867041E+00
pair_coeff 8     54      3.577232781590320432E-01 3.474793711469867041E+00
pair_coeff 9     54      3.577232781590320432E-01 3.474793711469867041E+00
pair_coeff 10     54      3.577232781590320432E-01 3.474793711469867041E+00
pair_coeff 11     54      3.577232781590320432E-01 3.474793711469867041E+00
pair_coeff 12      54      2.355507420287134279E-01 3.712968515405449921E+00
pair_coeff 13    54      3.740532488009395973E-02 5.055634843709905013E+00
pair_coeff 14    54      1.377639187878478000E-01 4.395666114966524596E+00
pair_coeff 15    54      2.865535440344418872E-01 3.958455633136796159E+00
pair_coeff 16    54      4.164606753319582411E-01 3.798422780106363472E+00
pair_coeff 17    54      5.027299572755441481E-01 3.779133400913722962E+00
pair_coeff 18   54      3.096136844230243934E-01 3.901819012016897847E+00
pair_coeff 19    54      3.170760672777966915E-01 3.795012416885348738E+00
pair_coeff 20     54      1.538747450918169224E-01 3.022695843626246770E+00
pair_coeff 21      54      0.000000000000000000E+00 0.000000000000000000E+00
pair_coeff 22    54      0.000000000000000000E+00 0.000000000000000000E+00
pair_coeff 23      54      6.174093927181751873E-01 3.568378392181247971E+00
pair_coeff 24   54      1.306264323148313311E+00 2.417694429390239375E+00
pair_coeff 25   54      1.306264323148313311E+00 2.417694429390239375E+00
pair_coeff 26     54      0.000000000000000000E+00 0.000000000000000000E+00
pair_coeff 27   54      9.624893257944396874E-01 2.543942360979170036E+00
pair_coeff 28   54      2.500664530681778186E-01 2.728037629200720460E+00
pair_coeff 29   54      3.184162403942434882E-01 3.290801682610015710E+00
pair_coeff 30     54      4.464221167515604050E-01 3.623057596546916947E+00
pair_coeff 31      54      3.019779824746237074E-01 3.364235340619288195E+00
pair_coeff 32     54      5.011252210957767295E-01 3.654781613128054829E+00
pair_coeff 33     54      7.642323678189105740E-01 3.748885466151363310E+00
pair_coeff 34   54      4.510639662060295652E-01 3.723352725101418237E+00
pair_coeff 35   54      3.316734066284257043E-01 3.497139053583150137E+00
pair_coeff 36    54      6.530688519666234815E-02 3.466304422228967397E+00
pair_coeff 37    54      3.683663327553086675E-01 3.970751072514505431E+00
pair_coeff 38   54      2.917908529999159173E-01 3.617855412260831294E+00
pair_coeff 39  54      5.006442542104175830E-01 3.639047016423571534E+00
pair_coeff 40   54      1.285588175284727575E-01 2.911625084894475357E+00
pair_coeff 41  54      5.093659212107068956E-01 3.701949134901025840E+00
pair_coeff 42  54      4.164606753319582411E-01 3.798422780106363472E+00
pair_coeff 43  54      5.856978767776226391E-01 3.181919913455625970E+00
pair_coeff 44   54      2.133815872199037178E-01 3.811567907744004557E+00
pair_coeff 45  54      4.758526013158087542E-01 3.643049242368777918E+00
pair_coeff 46   54      2.633851963143667985E-01 3.441784609948579376E+00
pair_coeff 47   54      2.849176640107791147E-01 3.597069123222504494E+00
pair_coeff 48  54      3.129260711536197559E-01 3.884604000517125399E+00
pair_coeff 49   54      4.122265241306839467E-01 3.372681685338640545E+00
pair_coeff 50  54      2.964646731576463523E-01 3.799432739545504756E+00
pair_coeff 51  54      4.192239325022028562E-01 3.375611956720639295E+00
pair_coeff 52  54      3.771404309338606820E-01 3.537151111574271312E+00
pair_coeff 53   54      4.164606753319582411E-01 3.798422780106363472E+00
pair_coeff 54      54      8.368454779149256950E-01 3.849607658402551813E+00
pair_coeff 1      55  3.175870057215742226E-01 3.004156156701421221E+00
pair_coeff 2     55  3.688154752311860185E-01 2.930205652875953248E+00
pair_coeff 3     55  2.887154597468856720E-01 3.052258307853131569E+00
pair_coeff 4     55  2.887154597468856720E-01 3.052258307853131569E+00
pair_coeff 5     55  2.264235444414708642E-01 3.217319135230157112E+00
pair_coeff 6      55  2.246101777309229275E-01 3.202459184531222913E+00
pair_coeff 7     55  2.246101777309229275E-01 3.202459184531222913E+00
pair_coeff 8     55  2.246101777309229275E-01 3.202459184531222913E+00
pair_coeff 9     55  2.246101777309229275E-01 3.202459184531222913E+00
pair_coeff 10     55  2.246101777309229275E-01 3.202459184531222913E+00
pair_coeff 11     55  2.246101777309229275E-01 3.202459184531222913E+00
pair_coeff 12      55  1.478995001499436579E-01 3.421967204782814687E+00
pair_coeff 13    55  2.348635714353968298E-02 4.659402998639063931E+00
pair_coeff 14    55  8.650032070345334279E-02 4.051158857442665351E+00
pair_coeff 15    55  1.799235509252720133E-01 3.648214441350505322E+00
pair_coeff 16    55  2.614906885166861650E-01 3.500724051252714020E+00
pair_coeff 17    55  3.156581412186418856E-01 3.482946463663709302E+00
pair_coeff 18   55  1.944027379041995962E-01 3.596016675800414841E+00
pair_coeff 19    55  1.990882790519060419E-01 3.497580972864009485E+00
pair_coeff 20     55  9.661611629313200666E-02 2.785794170892084587E+00
pair_coeff 21      55  0.000000000000000000E+00 0.000000000000000000E+00
pair_coeff 22    55  0.000000000000000000E+00 0.000000000000000000E+00
pair_coeff 23      55  3.876639902911756530E-01 3.288709231343011297E+00
pair_coeff 24   55  8.201877811694162634E-01 2.228209319371530661E+00
pair_coeff 25   55  8.201877811694162634E-01 2.228209319371530661E+00
pair_coeff 26     55  0.000000000000000000E+00 0.000000000000000000E+00
pair_coeff 27   55  6.043355625145997445E-01 2.344562657617333290E+00
pair_coeff 28   55  1.570137418991634226E-01 2.514229587944387223E+00
pair_coeff 29   55  1.999297577597621556E-01 3.032887402253098053E+00
pair_coeff 30     55  2.803031200614393148E-01 3.339102991308009027E+00
pair_coeff 31      55  1.896083717657784939E-01 3.100565748673854038E+00
pair_coeff 32     55  3.146505465202936724E-01 3.368340660276711862E+00
pair_coeff 33     55  4.798523843539687084E-01 3.455069189633579008E+00
pair_coeff 34   55  2.832176819438365079E-01 3.431537559306359508E+00
pair_coeff 35   55  2.082537742436552652E-01 3.223053226084240830E+00
pair_coeff 36    55  4.100541392375962879E-02 3.194635237397348781E+00
pair_coeff 37    55  2.312928247109353463E-01 3.659546234266159548E+00
pair_coeff 38   55  1.832119947291552531E-01 3.334308524577047184E+00
pair_coeff 39  55  3.143485531522378085E-01 3.353839251584496139E+00
pair_coeff 40   55  8.072054746493292909E-02 2.683428505195357694E+00
pair_coeff 41  55  3.198247837881820765E-01 3.411811460518701100E+00
pair_coeff 42  55  2.614906885166861650E-01 3.500724051252714020E+00
pair_coeff 43  55  3.677527078379324021E-01 2.932539165606559806E+00
pair_coeff 44   55  1.339797523846405214E-01 3.512838938705180603E+00
pair_coeff 45  55  2.987821701324951396E-01 3.357527805870319515E+00
pair_coeff 46   55  1.653764218541119713E-01 3.172037148255793415E+00
pair_coeff 47   55  1.788964013789737795E-01 3.315151346404604737E+00
pair_coeff 48  55  1.964825460064327234E-01 3.580150878787119240E+00
pair_coeff 49   55  2.588321155025055109E-01 3.108350117033022997E+00
pair_coeff 50  55  1.861466306346315491E-01 3.501654855827156965E+00
pair_coeff 51  55  2.632257047206049139E-01 3.111050730444828272E+00
pair_coeff 52  55  2.368019762580622356E-01 3.259929367013902457E+00
pair_coeff 53   55  2.614906885166861650E-01 3.500724051252714020E+00
pair_coeff 54      55  5.254452897086219210E-01 3.547897350510067938E+00
pair_coeff 55  55  3.299208273968177729E-01 3.269833376988799500E+00
pair_coeff 1      56      1.423703976828447626E-01 3.143928959384971744E+00
pair_coeff 2     56      1.653354984123153737E-01 3.066537799135407028E+00
pair_coeff 3     56      1.294276342571315797E-01 3.194269134171567437E+00
pair_coeff 4     56      1.294276342571315797E-01 3.194269134171567437E+00
pair_coeff 5     56      1.015029251390483361E-01 3.367009660356621747E+00
pair_coeff 6      56      1.006900148654086141E-01 3.351458328501519368E+00
pair_coeff 7     56      1.006900148654086141E-01 3.351458328501519368E+00
pair_coeff 8     56      1.006900148654086141E-01 3.351458328501519368E+00
pair_coeff 9     56      1.006900148654086141E-01 3.351458328501519368E+00
pair_coeff 10     56      1.006900148654086141E-01 3.351458328501519368E+00
pair_coeff 11     56      1.006900148654086141E-01 3.351458328501519368E+00
pair_coeff 12      56      6.630154972997068241E-02 3.581179283634555510E+00
pair_coeff 13    56      1.052864867392752299E-02 4.876188605638604123E+00
pair_coeff 14    56      3.877704325548127218E-02 4.239645007324696735E+00
pair_coeff 15    56      8.065754277175206377E-02 3.817953007077415251E+00
pair_coeff 16    56      1.172230999498745652E-01 3.663600408719620116E+00
pair_coeff 17    56      1.415057111515590771E-01 3.644995692608442361E+00
pair_coeff 18   56      8.714838644978782634E-02 3.763326663382849269E+00
pair_coeff 19    56      8.924885764206048899E-02 3.660311093966183371E+00
pair_coeff 20     56      4.331183156556572822E-02 2.915407359639444529E+00
pair_coeff 21      56      0.000000000000000000E+00 0.000000000000000000E+00
pair_coeff 22    56      0.000000000000000000E+00 0.000000000000000000E+00
pair_coeff 23      56      1.737850588051431666E-01 3.441721286142719993E+00
pair_coeff 24   56      3.676802214070164498E-01 2.331880049283297840E+00
pair_coeff 25   56      3.676802214070164498E-01 2.331880049283297840E+00
pair_coeff 26     56      0.000000000000000000E+00 0.000000000000000000E+00
pair_coeff 27   56      2.709162932331031781E-01 2.453646898458591963E+00
pair_coeff 28   56      7.038735361689542336E-02 2.631207833337182223E+00
pair_coeff 29   56      8.962608232733035307E-02 3.173996968575379718E+00
pair_coeff 30     56      1.256564845410435005E-01 3.494459690227617266E+00
pair_coeff 31      56      8.499913033581890653E-02 3.244824150032262100E+00
pair_coeff 32     56      1.410540186851716171E-01 3.525057684932574986E+00
pair_coeff 33     56      2.151119962679723108E-01 3.615821387226038297E+00
pair_coeff 34   56      1.269630472365963769E-01 3.591194913038851411E+00
pair_coeff 35   56      9.335763782481623640E-02 3.373010538257620983E+00
pair_coeff 36    56      1.838222906573640236E-02 3.343270360670348218E+00
pair_coeff 37    56      1.036857643481583074E-01 3.829812028396864854E+00
pair_coeff 38   56      8.213171219204309925E-02 3.489442153850004225E+00
pair_coeff 39  56      1.409186387258750672E-01 3.509881576780662371E+00
pair_coeff 40   56      3.618604110595938922E-02 2.808278980140014092E+00
pair_coeff 41  56      1.433735664130799115E-01 3.570551028367321855E+00
pair_coeff 42  56      1.172230999498745652E-01 3.663600408719620116E+00
pair_coeff 43  56      1.648590726968548470E-01 3.068979881992677683E+00
pair_coeff 44   56      6.006149585721085732E-02 3.676278959205930619E+00
pair_coeff 45  56      1.339404182663543053E-01 3.513741746503062924E+00
pair_coeff 46   56      7.413624147890124361E-02 3.319620862051439580E+00
pair_coeff 47   56      8.019708410451541203E-02 3.469393659665676477E+00
pair_coeff 48  56      8.808073916348332921E-02 3.746722686727856910E+00
pair_coeff 49   56      1.160312939550487005E-01 3.252970697627771912E+00
pair_coeff 50  56      8.344727382835046003E-02 3.664574520351796316E+00
pair_coeff 51  56      1.180008866429317071E-01 3.255796961067685569E+00
pair_coeff 52  56      1.061554500800334505E-01 3.411602396114444158E+00
pair_coeff 53   56      1.172230999498745652E-01 3.663600408719620116E+00
pair_coeff 54      56      2.355507420287134279E-01 3.712968515405449921E+00
pair_coeff 55  56      1.478995001499436579E-01 3.421967204782814687E+00
pair_coeff 56      56      6.630154972997068241E-02 3.581179283634555510E+00
pair_coeff 1      57     3.731714874568097806E-01 3.021498329079459921E+00
pair_coeff 2     57     4.333660288663451210E-01 2.947120929208018492E+00
pair_coeff 3     57     3.392468067789179420E-01 3.069878160802191225E+00
pair_coeff 4     57     3.392468067789179420E-01 3.069878160802191225E+00
pair_coeff 5     57     2.660524812168876263E-01 3.235891839220214727E+00
pair_coeff 6      57     2.639217367579247409E-01 3.220946106087509531E+00
pair_coeff 7     57     2.639217367579247409E-01 3.220946106087509531E+00
pair_coeff 8     57     2.639217367579247409E-01 3.220946106087509531E+00
pair_coeff 9     57     2.639217367579247409E-01 3.220946106087509531E+00
pair_coeff 10     57     2.639217367579247409E-01 3.220946106087509531E+00
pair_coeff 11     57     2.639217367579247409E-01 3.220946106087509531E+00
pair_coeff 12      57     1.737850588051431666E-01 3.441721286142719993E+00
pair_coeff 13    57     2.759696924716207450E-02 4.686300458613273712E+00
pair_coeff 14    57     1.016397168676915763E-01 4.074545090238809841E+00
pair_coeff 15    57     2.114139996840987690E-01 3.669274586167817986E+00
pair_coeff 16    57     3.072571214561132247E-01 3.520932774360979955E+00
pair_coeff 17    57     3.709050306349177539E-01 3.503052561617904459E+00
pair_coeff 18   57     2.284273523866607036E-01 3.616775497184223198E+00
pair_coeff 19    57     2.339329629063890137E-01 3.517771551839822930E+00
pair_coeff 20     57     1.135259918695059600E-01 2.801875799210098883E+00
pair_coeff 21      57     0.000000000000000000E+00 0.000000000000000000E+00
pair_coeff 22    57     0.000000000000000000E+00 0.000000000000000000E+00
pair_coeff 23      57     4.555134350088204109E-01 3.307694050845144673E+00
pair_coeff 24   57     9.637380899683938296E-01 2.241072162744267793E+00
pair_coeff 25   57     9.637380899683938296E-01 2.241072162744267793E+00
pair_coeff 26     57     0.000000000000000000E+00 0.000000000000000000E+00
pair_coeff 27   57     7.101071414248384395E-01 2.358097177009347067E+00
pair_coeff 28   57     1.844944867392919463E-01 2.528743548150760745E+00
pair_coeff 29   57     2.349217182881164212E-01 3.050395432258705242E+00
pair_coeff 30     57     3.293621287006147091E-01 3.358378720212484847E+00
pair_coeff 31      57     2.227938701879095817E-01 3.118464467275081642E+00
pair_coeff 32     57     3.697210854307304562E-01 3.387785170252723521E+00
pair_coeff 33     57     5.638367590708479593E-01 3.475014359704387434E+00
pair_coeff 34   57     3.327868009112045500E-01 3.451346887707100741E+00
pair_coeff 35   57     2.447026147257768958E-01 3.241659031413521852E+00
pair_coeff 36    57     4.818223363057468761E-02 3.213076993445320717E+00
pair_coeff 37    57     2.717739891131936147E-01 3.680671794426697563E+00
pair_coeff 38   57     2.152779911056781903E-01 3.353556576335538608E+00
pair_coeff 39  57     3.693662367992399664E-01 3.373200048891741964E+00
pair_coeff 40   57     9.484836036467202136E-02 2.698919204504523606E+00
pair_coeff 41  57     3.758009242872520916E-01 3.431506915542800851E+00
pair_coeff 42  57     3.072571214561132247E-01 3.520932774360979955E+00
pair_coeff 43  57     4.321172545720066149E-01 2.949467912669808012E+00
pair_coeff 44   57     1.574290590790217992E-01 3.533117597747393646E+00
pair_coeff 45  57     3.510754056218069463E-01 3.376909896193278637E+00
pair_coeff 46   57     1.943208135778947410E-01 3.190348451711801925E+00
pair_coeff 47   57     2.102070771175983122E-01 3.334288809009665400E+00
pair_coeff 48  57     2.308711711486143847E-01 3.600818111261308019E+00
pair_coeff 49   57     3.041332416110918979E-01 3.126293772665116322E+00
pair_coeff 50  57     2.187262507204020268E-01 3.521868952215817750E+00
pair_coeff 51  57     3.092958024031092212E-01 3.129009975979999414E+00
pair_coeff 52  57     2.782473593721414562E-01 3.278748048225554435E+00
pair_coeff 53   57     3.072571214561132247E-01 3.520932774360979955E+00
pair_coeff 54      57     6.174093927181751873E-01 3.568378392181247971E+00
pair_coeff 55  57     3.876639902911756530E-01 3.288709231343011297E+00
pair_coeff 56      57     1.737850588051431666E-01 3.441721286142719993E+00
pair_coeff 57     57     4.555134350088204109E-01 3.307694050845144673E+00
pair_coeff 1      58   0.000000000000000000E+00 0.000000000000000000E+00
pair_coeff 2     58   0.000000000000000000E+00 0.000000000000000000E+00
pair_coeff 3     58   0.000000000000000000E+00 0.000000000000000000E+00
pair_coeff 4     58   0.000000000000000000E+00 0.000000000000000000E+00
pair_coeff 5     58   0.000000000000000000E+00 0.000000000000000000E+00
pair_coeff 6      58   0.000000000000000000E+00 0.000000000000000000E+00
pair_coeff 7     58   0.000000000000000000E+00 0.000000000000000000E+00
pair_coeff 8     58   0.000000000000000000E+00 0.000000000000000000E+00
pair_coeff 9     58   0.000000000000000000E+00 0.000000000000000000E+00
pair_coeff 10     58   0.000000000000000000E+00 0.000000000000000000E+00
pair_coeff 11     58   0.000000000000000000E+00 0.000000000000000000E+00
pair_coeff 12      58   0.000000000000000000E+00 0.000000000000000000E+00
pair_coeff 13    58   0.000000000000000000E+00 0.000000000000000000E+00
pair_coeff 14    58   0.000000000000000000E+00 0.000000000000000000E+00
pair_coeff 15    58   0.000000000000000000E+00 0.000000000000000000E+00
pair_coeff 16    58   0.000000000000000000E+00 0.000000000000000000E+00
pair_coeff 17    58   0.000000000000000000E+00 0.000000000000000000E+00
pair_coeff 18   58   0.000000000000000000E+00 0.000000000000000000E+00
pair_coeff 19    58   0.000000000000000000E+00 0.000000000000000000E+00
pair_coeff 20     58   0.000000000000000000E+00 0.000000000000000000E+00
pair_coeff 21      58   0.000000000000000000E+00 0.000000000000000000E+00
pair_coeff 22    58   0.000000000000000000E+00 0.000000000000000000E+00
pair_coeff 23      58   0.000000000000000000E+00 0.000000000000000000E+00
pair_coeff 24   58   0.000000000000000000E+00 0.000000000000000000E+00
pair_coeff 25   58   0.000000000000000000E+00 0.000000000000000000E+00
pair_coeff 26     58   0.000000000000000000E+00 0.000000000000000000E+00
pair_coeff 27   58   0.000000000000000000E+00 0.000000000000000000E+00
pair_coeff 28   58   0.000000000000000000E+00 0.000000000000000000E+00
pair_coeff 29   58   0.000000000000000000E+00 0.000000000000000000E+00
pair_coeff 30     58   0.000000000000000000E+00 0.000000000000000000E+00
pair_coeff 31      58   0.000000000000000000E+00 0.000000000000000000E+00
pair_coeff 32     58   0.000000000000000000E+00 0.000000000000000000E+00
pair_coeff 33     58   0.000000000000000000E+00 0.000000000000000000E+00
pair_coeff 34   58   0.000000000000000000E+00 0.000000000000000000E+00
pair_coeff 35   58   0.000000000000000000E+00 0.000000000000000000E+00
pair_coeff 36    58   0.000000000000000000E+00 0.000000000000000000E+00
pair_coeff 37    58   0.000000000000000000E+00 0.000000000000000000E+00
pair_coeff 38   58   0.000000000000000000E+00 0.000000000000000000E+00
pair_coeff 39  58   0.000000000000000000E+00 0.000000000000000000E+00
pair_coeff 40   58   0.000000000000000000E+00 0.000000000000000000E+00
pair_coeff 41  58   0.000000000000000000E+00 0.000000000000000000E+00
pair_coeff 42  58   0.000000000000000000E+00 0.000000000000000000E+00
pair_coeff 43  58   0.000000000000000000E+00 0.000000000000000000E+00
pair_coeff 44   58   0.000000000000000000E+00 0.000000000000000000E+00
pair_coeff 45  58   0.000000000000000000E+00 0.000000000000000000E+00
pair_coeff 46   58   0.000000000000000000E+00 0.000000000000000000E+00
pair_coeff 47   58   0.000000000000000000E+00 0.000000000000000000E+00
pair_coeff 48  58   0.000000000000000000E+00 0.000000000000000000E+00
pair_coeff 49   58   0.000000000000000000E+00 0.000000000000000000E+00
pair_coeff 50  58   0.000000000000000000E+00 0.000000000000000000E+00
pair_coeff 51  58   0.000000000000000000E+00 0.000000000000000000E+00
pair_coeff 52  58   0.000000000000000000E+00 0.000000000000000000E+00
pair_coeff 53   58   0.000000000000000000E+00 0.000000000000000000E+00
pair_coeff 54      58   0.000000000000000000E+00 0.000000000000000000E+00
pair_coeff 55  58   0.000000000000000000E+00 0.000000000000000000E+00
pair_coeff 56      58   0.000000000000000000E+00 0.000000000000000000E+00
pair_coeff 57     58   0.000000000000000000E+00 0.000000000000000000E+00
pair_coeff 58   58   0.000000000000000000E+00 0.000000000000000000E+00
pair_coeff 1      59  3.175870057215742226E-01 3.004156156701421221E+00
pair_coeff 2     59  3.688154752311860185E-01 2.930205652875953248E+00
pair_coeff 3     59  2.887154597468856720E-01 3.052258307853131569E+00
pair_coeff 4     59  2.887154597468856720E-01 3.052258307853131569E+00
pair_coeff 5     59  2.264235444414708642E-01 3.217319135230157112E+00
pair_coeff 6      59  2.246101777309229275E-01 3.202459184531222913E+00
pair_coeff 7     59  2.246101777309229275E-01 3.202459184531222913E+00
pair_coeff 8     59  2.246101777309229275E-01 3.202459184531222913E+00
pair_coeff 9     59  2.246101777309229275E-01 3.202459184531222913E+00
pair_coeff 10     59  2.246101777309229275E-01 3.202459184531222913E+00
pair_coeff 11     59  2.246101777309229275E-01 3.202459184531222913E+00
pair_coeff 12      59  1.478995001499436579E-01 3.421967204782814687E+00
pair_coeff 13    59  2.348635714353968298E-02 4.659402998639063931E+00
pair_coeff 14    59  8.650032070345334279E-02 4.051158857442665351E+00
pair_coeff 15    59  1.799235509252720133E-01 3.648214441350505322E+00
pair_coeff 16    59  2.614906885166861650E-01 3.500724051252714020E+00
pair_coeff 17    59  3.156581412186418856E-01 3.482946463663709302E+00
pair_coeff 18   59  1.944027379041995962E-01 3.596016675800414841E+00
pair_coeff 19    59  1.990882790519060419E-01 3.497580972864009485E+00
pair_coeff 20     59  9.661611629313200666E-02 2.785794170892084587E+00
pair_coeff 21      59  0.000000000000000000E+00 0.000000000000000000E+00
pair_coeff 22    59  0.000000000000000000E+00 0.000000000000000000E+00
pair_coeff 23      59  3.876639902911756530E-01 3.288709231343011297E+00
pair_coeff 24   59  8.201877811694162634E-01 2.228209319371530661E+00
pair_coeff 25   59  8.201877811694162634E-01 2.228209319371530661E+00
pair_coeff 26     59  0.000000000000000000E+00 0.000000000000000000E+00
pair_coeff 27   59  6.043355625145997445E-01 2.344562657617333290E+00
pair_coeff 28   59  1.570137418991634226E-01 2.514229587944387223E+00
pair_coeff 29   59  1.999297577597621556E-01 3.032887402253098053E+00
pair_coeff 30     59  2.803031200614393148E-01 3.339102991308009027E+00
pair_coeff 31      59  1.896083717657784939E-01 3.100565748673854038E+00
pair_coeff 32     59  3.146505465202936724E-01 3.368340660276711862E+00
pair_coeff 33     59  4.798523843539687084E-01 3.455069189633579008E+00
pair_coeff 34   59  2.832176819438365079E-01 3.431537559306359508E+00
pair_coeff 35   59  2.082537742436552652E-01 3.223053226084240830E+00
pair_coeff 36    59  4.100541392375962879E-02 3.194635237397348781E+00
pair_coeff 37    59  2.312928247109353463E-01 3.659546234266159548E+00
pair_coeff 38   59  1.832119947291552531E-01 3.334308524577047184E+00
pair_coeff 39  59  3.143485531522378085E-01 3.353839251584496139E+00
pair_coeff 40   59  8.072054746493292909E-02 2.683428505195357694E+00
pair_coeff 41  59  3.198247837881820765E-01 3.411811460518701100E+00
pair_coeff 42  59  2.614906885166861650E-01 3.500724051252714020E+00
pair_coeff 43  59  3.677527078379324021E-01 2.932539165606559806E+00
pair_coeff 44   59  1.339797523846405214E-01 3.512838938705180603E+00
pair_coeff 45  59  2.987821701324951396E-01 3.357527805870319515E+00
pair_coeff 46   59  1.653764218541119713E-01 3.172037148255793415E+00
pair_coeff 47   59  1.788964013789737795E-01 3.315151346404604737E+00
pair_coeff 48  59  1.964825460064327234E-01 3.580150878787119240E+00
pair_coeff 49   59  2.588321155025055109E-01 3.108350117033022997E+00
pair_coeff 50  59  1.861466306346315491E-01 3.501654855827156965E+00
pair_coeff 51  59  2.632257047206049139E-01 3.111050730444828272E+00
pair_coeff 52  59  2.368019762580622356E-01 3.259929367013902457E+00
pair_coeff 53   59  2.614906885166861650E-01 3.500724051252714020E+00
pair_coeff 54      59  5.254452897086219210E-01 3.547897350510067938E+00
pair_coeff 55  59  3.299208273968177729E-01 3.269833376988799500E+00
pair_coeff 56      59  1.478995001499436579E-01 3.421967204782814687E+00
pair_coeff 57     59  3.876639902911756530E-01 3.288709231343011297E+00
pair_coeff 58   59  0.000000000000000000E+00 0.000000000000000000E+00
pair_coeff 59  59  3.299208273968177729E-01 3.269833376988799500E+00
pair_coeff 1      60  4.213927930353735807E-01 3.280869740545562685E+00
pair_coeff 2     60  4.893656869531686771E-01 3.200107637098358104E+00
pair_coeff 3     60  3.830843573048849926E-01 3.333402593012885884E+00
pair_coeff 4     60  3.830843573048849926E-01 3.333402593012885884E+00
pair_coeff 5     60  3.004318441315838584E-01 3.513667214970925379E+00
pair_coeff 6      60  2.980257643827635139E-01 3.497438510452560934E+00
pair_coeff 7     60  2.980257643827635139E-01 3.497438510452560934E+00
pair_coeff 8     60  2.980257643827635139E-01 3.497438510452560934E+00
pair_coeff 9     60  2.980257643827635139E-01 3.497438510452560934E+00
pair_coeff 10     60  2.980257643827635139E-01 3.497438510452560934E+00
pair_coeff 11     60  2.980257643827635139E-01 3.497438510452560934E+00
pair_coeff 12      60  1.962416041396830291E-01 3.737165469999586431E+00
pair_coeff 13    60  3.116305597093314839E-02 5.088581787981105720E+00
pair_coeff 14    60  1.147736244965881502E-01 4.424312125013074137E+00
pair_coeff 15    60  2.387329654277859925E-01 3.984252396783054539E+00
pair_coeff 16    60  3.469609574750426306E-01 3.823176629528523662E+00
pair_coeff 17    60  4.188334641408217873E-01 3.803761543847788751E+00
pair_coeff 18   60  2.579447874860245626E-01 3.927246681838655107E+00
pair_coeff 19    60  2.641618342654674101E-01 3.819744041394028677E+00
pair_coeff 20     60  1.281958466924380258E-01 3.042394376963291069E+00
pair_coeff 21      60  0.000000000000000000E+00 0.000000000000000000E+00
pair_coeff 22    60  0.000000000000000000E+00 0.000000000000000000E+00
pair_coeff 23      60  5.143749860195843127E-01 3.591633070903154312E+00
pair_coeff 24   60  1.088272547975307258E+00 2.433450243663300760E+00
pair_coeff 25   60  1.088272547975307258E+00 2.433450243663300760E+00
pair_coeff 26     60  0.000000000000000000E+00 0.000000000000000000E+00
pair_coeff 27   60  8.018673498307147263E-01 2.560520917340021185E+00
pair_coeff 28   60  2.083349068186673148E-01 2.745815911556464428E+00
pair_coeff 29   60  2.652783568454061824E-01 3.312247428395911797E+00
pair_coeff 30     60  3.719223788481205717E-01 3.646668612851485136E+00
pair_coeff 31      60  2.515833454197372587E-01 3.386159644432585214E+00
pair_coeff 32     60  4.174965292645979598E-01 3.678599370907961408E+00
pair_coeff 33     60  6.366958749718966137E-01 3.773316487051947554E+00
pair_coeff 34   60  3.757895879907217074E-01 3.747617352300228966E+00
pair_coeff 35   60  2.763231429740154454E-01 3.519929474384682955E+00
pair_coeff 36    60  5.440835296030136631E-02 3.488893897568208224E+00
pair_coeff 37    60  3.068926865963431116E-01 3.996627964011863376E+00
pair_coeff 38   60  2.430962627110289931E-01 3.641432526576616979E+00
pair_coeff 39  60  4.170958270111979060E-01 3.662762233791288402E+00
pair_coeff 40   60  1.071046873416893891E-01 2.930599783893948374E+00
pair_coeff 41  60  4.243620062988024966E-01 3.726074277561229664E+00
pair_coeff 42  60  3.469609574750426306E-01 3.823176629528523662E+00
pair_coeff 43  60  4.879555457568295340E-01 3.202656090277113510E+00
pair_coeff 44   60  1.777720783609382238E-01 3.836407422330105899E+00
pair_coeff 45  60  3.964414504152660723E-01 3.666790541745827525E+00
pair_coeff 46   60  2.194309938750947930E-01 3.464214292717012533E+00
pair_coeff 47   60  2.373700840491974606E-01 3.620510775874676401E+00
pair_coeff 48  60  2.607043970713927572E-01 3.909919482247368627E+00
pair_coeff 49   60  3.434334091567836644E-01 3.394661032931277411E+00
pair_coeff 50  60  2.469901072275602905E-01 3.824193170747873793E+00
pair_coeff 51  60  3.492630772436706166E-01 3.397610400527878660E+00
pair_coeff 52  60  3.142025472514550222E-01 3.560202285987479787E+00
pair_coeff 53   60  3.469609574750426306E-01 3.823176629528523662E+00
pair_coeff 54      60  6.971911766809288924E-01 3.874695073318440208E+00
pair_coeff 55  60  4.377580204247071283E-01 3.571018556827535662E+00
pair_coeff 56      60  1.962416041396830291E-01 3.737165469999586431E+00
pair_coeff 57     60  5.143749860195843127E-01 3.591633070903154312E+00
pair_coeff 58   60  0.000000000000000000E+00 0.000000000000000000E+00
pair_coeff 59  60  4.377580204247071283E-01 3.571018556827535662E+00
pair_coeff 60  60  5.808426402121911192E-01 3.899945979801004992E+00
pair_coeff 1      61  1.910810716445957014E-01 3.063480889575645350E+00
pair_coeff 2     61  2.219034625996930687E-01 2.988070044257751245E+00
pair_coeff 3     61  1.557302947388717884E-01 3.169732425659423480E+00
pair_coeff 4     61  1.737100651314506250E-01 3.112532940505829959E+00
pair_coeff 5     61  1.362311830710550009E-01 3.280853315316931695E+00
pair_coeff 6      61  1.351401432989809970E-01 3.265699916954241999E+00
pair_coeff 7     61  9.147486144193246738E-02 3.485165270484214428E+00
pair_coeff 8     61  6.708554049685398757E-02 3.670023545392655517E+00
pair_coeff 9     61  1.117970875851971996E-01 3.370558915160181357E+00
pair_coeff 10     61  9.581863977856053260E-02 3.458321283688134518E+00
pair_coeff 11     61  1.037391321796109073E-01 3.412845037342698173E+00
pair_coeff 12      61  8.898599273651414121E-02 3.489542683465986617E+00
pair_coeff 13    61  1.413092541937840431E-02 4.751414806224702581E+00
pair_coeff 14    61  5.204423883799429856E-02 4.131159331623315722E+00
pair_coeff 15    61  1.082537519026915002E-01 3.720257749325097230E+00
pair_coeff 16    61  1.573298657900891462E-01 3.569854784934338721E+00
pair_coeff 17    61  1.899205408620464608E-01 3.551726133492507209E+00
pair_coeff 18   61  1.169653758502452456E-01 3.667029205634201983E+00
pair_coeff 19    61  1.197845032314313607E-01 3.566649638438623260E+00
pair_coeff 20     61  5.813056172586479609E-02 2.840806788882025202E+00
pair_coeff 21      61  0.000000000000000000E+00 0.000000000000000000E+00
pair_coeff 22    61  0.000000000000000000E+00 0.000000000000000000E+00
pair_coeff 23      61  2.332439595082145267E-01 3.353653191135248957E+00
pair_coeff 24   61  1.570138934856017687E-01 2.750027377697141340E+00
pair_coeff 25   61  8.635572240102759589E-02 3.038166082187003791E+00
pair_coeff 26     61  0.000000000000000000E+00 0.000000000000000000E+00
pair_coeff 27   61  3.636077195786372451E-01 2.390862032921029723E+00
pair_coeff 28   61  9.446971546223430216E-02 2.563879469944211564E+00
pair_coeff 29   61  1.202907917456541853E-01 3.092779506921127464E+00
pair_coeff 30     61  1.686486525006622439E-01 3.405042104545177306E+00
pair_coeff 31      61  1.140807722516042760E-01 3.161794335073641271E+00
pair_coeff 32     61  1.893143061255012083E-01 3.434857145930944711E+00
pair_coeff 33     61  2.887105145415023166E-01 3.523298351516439553E+00
pair_coeff 34   61  1.704022431634715784E-01 3.499302029072553388E+00
pair_coeff 35   61  1.252990633735053816E-01 3.286700640433966480E+00
pair_coeff 36    61  2.467153345263567096E-02 3.257721466009803724E+00
pair_coeff 37    61  1.391608599006002867E-01 3.731813317421747822E+00
pair_coeff 38   61  1.102322943328560290E-01 3.400152958828419614E+00
pair_coeff 39  61  1.891326072040779016E-01 3.420069369902248191E+00
pair_coeff 40   61  4.856675001010610920E-02 2.736419651778293272E+00
pair_coeff 41  61  1.924274649899363476E-01 3.479186388103933769E+00
pair_coeff 42  61  1.573298657900891462E-01 3.569854784934338721E+00
pair_coeff 43  61  2.212640323687539434E-01 2.990449638154641487E+00
pair_coeff 44   61  8.061096393464804721E-02 3.582208911768658854E+00
pair_coeff 45  61  1.797668551567465633E-01 3.423830764109261793E+00
pair_coeff 46   61  9.950124955784923897E-02 3.234677119905607690E+00
pair_coeff 47   61  1.076357516932685832E-01 3.380617473265008499E+00
pair_coeff 48  61  1.182167241542694813E-01 3.650850097953766138E+00
pair_coeff 49   61  1.557302947388717884E-01 3.169732425659423480E+00
pair_coeff 50  61  1.119979628381875536E-01 3.570803970621432288E+00
pair_coeff 51  61  1.583737647834132234E-01 3.172486369577665499E+00
pair_coeff 52  61  1.424755250553842723E-01 3.324304994910451949E+00
pair_coeff 53   61  1.573298657900891462E-01 3.569854784934338721E+00
pair_coeff 54      61  3.161421822659541414E-01 3.617959641418169170E+00
pair_coeff 55  61  1.985019037967935274E-01 3.334404584847074471E+00
pair_coeff 56      61  8.898599273651414121E-02 3.489542683465986617E+00
pair_coeff 57     61  2.332439595082145267E-01 3.353653191135248957E+00
pair_coeff 58   61  0.000000000000000000E+00 0.000000000000000000E+00
pair_coeff 59  61  1.985019037967935274E-01 3.334404584847074471E+00
pair_coeff 60  61  2.633837976894515820E-01 3.641537434982425658E+00
pair_coeff 61  61  1.194317016050606556E-01 3.400250916053718875E+00
pair_coeff 1      62   3.022272329752703768E-01 3.080610167712853453E+00
pair_coeff 2     62   1.855061234448970586E-01 3.341688535145806327E+00
pair_coeff 3     62   2.783347785346825254E-01 3.123185389796383937E+00
pair_coeff 4     62   2.783347785346825254E-01 3.123185389796383937E+00
pair_coeff 5     62   2.434842638240715673E-01 3.232674486185113771E+00
pair_coeff 6      62   1.146462465840507594E-01 3.643241170326683598E+00
pair_coeff 7     62   9.900340316124917051E-02 3.733414477700354173E+00
pair_coeff 8     62   7.260679827666578767E-02 3.931440254472196472E+00
pair_coeff 9     62   1.209981842003316904E-01 3.610644682584218224E+00
pair_coeff 10     62   1.037046820823140647E-01 3.704658386908206591E+00
pair_coeff 11     62   1.122770449157311640E-01 3.655942855987651008E+00
pair_coeff 12      62   9.630969619111764968E-02 3.738103694920388520E+00
pair_coeff 13    62   1.529392539418433263E-02 5.089859289414571109E+00
pair_coeff 14    62   5.632757107994194185E-02 4.425422859853802571E+00
pair_coeff 15    62   1.171632257693376034E-01 3.985252653506883291E+00
pair_coeff 16    62   1.702783900034554321E-01 3.824136447770248637E+00
pair_coeff 17    62   2.055513348604910695E-01 3.804716487882746634E+00
pair_coeff 18   62   1.265918316646999775E-01 3.928232627132385968E+00
pair_coeff 19    62   1.296429781795231384E-01 3.820702997875749851E+00
pair_coeff 20     62   6.291480902858739843E-02 3.043158177829559552E+00
pair_coeff 21      62   0.000000000000000000E+00 0.000000000000000000E+00
pair_coeff 22    62   0.000000000000000000E+00 0.000000000000000000E+00
pair_coeff 23      62   2.524403469337466177E-01 3.592534759544063760E+00
pair_coeff 24   62   5.340926503741362241E-01 2.434061167552131533E+00
pair_coeff 25   62   5.340926503741362241E-01 2.434061167552131533E+00
pair_coeff 26     62   0.000000000000000000E+00 0.000000000000000000E+00
pair_coeff 27   62   3.935332733664513305E-01 2.561163742645501173E+00
pair_coeff 28   62   1.022447389261494227E-01 2.746505255642734511E+00
pair_coeff 29   62   1.301909351274692650E-01 3.313078976558852418E+00
pair_coeff 30     62   1.825287327352057842E-01 3.647584118305537970E+00
pair_coeff 31      62   8.776721851084816339E-02 3.585264437649749780E+00
pair_coeff 32     62   2.048952059406277393E-01 3.679522892660245681E+00
pair_coeff 33     62   3.124718968411722697E-01 3.774263787777763390E+00
pair_coeff 34   62   1.844266469887313464E-01 3.748558201192733641E+00
pair_coeff 35   62   1.356113963044227322E-01 3.520813161654846368E+00
pair_coeff 36    62   2.670204397705544519E-02 3.489769793277673227E+00
pair_coeff 37    62   1.506140430259195195E-01 3.997631327653401900E+00
pair_coeff 38   62   1.193046057156692125E-01 3.642346717497859210E+00
pair_coeff 39  62   2.046985528789223296E-01 3.663681779589916143E+00
pair_coeff 40   62   5.256387881532230411E-02 2.931335518442557131E+00
pair_coeff 41  62   2.082645832460674196E-01 3.727009718009888228E+00
pair_coeff 42  62   1.702783900034554321E-01 3.824136447770248637E+00
pair_coeff 43  62   1.845251754501273656E-01 3.345696810660210740E+00
pair_coeff 44   62   8.724538781296764522E-02 3.837370562196102064E+00
pair_coeff 45  62   1.945619829925733513E-01 3.667711098861439201E+00
pair_coeff 46   62   1.076903771128106951E-01 3.465083992548747993E+00
pair_coeff 47   62   1.164943630575195482E-01 3.621419714337055673E+00
pair_coeff 48  62   1.279461681314143506E-01 3.910901077503457834E+00
pair_coeff 49   62   1.685471714460022030E-01 3.395513271239786857E+00
pair_coeff 50  62   1.212155918393642284E-01 3.825153244194864577E+00
pair_coeff 51  62   1.714082037169344097E-01 3.398463379282643082E+00
pair_coeff 52  62   1.542015109432330056E-01 3.561096083849689897E+00
pair_coeff 53   62   1.702783900034554321E-01 3.824136447770248637E+00
pair_coeff 54      62   3.421612389871924731E-01 3.875667825396847732E+00
pair_coeff 55  62   2.148389590329646270E-01 3.571915070142120285E+00
pair_coeff 56      62   9.630969619111764968E-02 3.738103694920388520E+00
pair_coeff 57     62   2.524403469337466177E-01 3.592534759544063760E+00
pair_coeff 58   62   0.000000000000000000E+00 0.000000000000000000E+00
pair_coeff 59  62   2.148389590329646270E-01 3.571915070142120285E+00
pair_coeff 60  62   2.850607467204795409E-01 3.900925071183873882E+00
pair_coeff 61  62   2.134587638969343837E-01 3.350318751416838214E+00
pair_coeff 62   62   1.398995591837953467E-01 3.901904408370130639E+00
pair_coeff 1      63   1.498564773336243661E-01 3.117191049441867978E+00
pair_coeff 2     63   1.740291224406275705E-01 3.040458071326784140E+00
pair_coeff 3     63   1.362331612123857949E-01 3.167103100349917710E+00
pair_coeff 4     63   1.362331612123857949E-01 3.167103100349917710E+00
pair_coeff 5     63   1.068401230028258736E-01 3.338374534614535705E+00
pair_coeff 6      63   1.059844685129975872E-01 3.322955460872134559E+00
pair_coeff 7     63   1.059844685129975872E-01 3.322955460872134559E+00
pair_coeff 8     63   1.059844685129975872E-01 3.322955460872134559E+00
pair_coeff 9     63   1.059844685129975872E-01 3.322955460872134559E+00
pair_coeff 10     63   1.059844685129975872E-01 3.322955460872134559E+00
pair_coeff 11     63   1.059844685129975872E-01 3.322955460872134559E+00
pair_coeff 12      63   6.978779891046651973E-02 3.550722727391420364E+00
pair_coeff 13    63   1.108226307601466523E-02 4.834718491813685404E+00
pair_coeff 14    63   4.081600668577894941E-02 4.203588452656632057E+00
pair_coeff 15    63   8.489865468443062724E-02 3.785482781131149110E+00
pair_coeff 16    63   1.233868915625870588E-01 3.632442892420324476E+00
pair_coeff 17    63   1.489463241017357775E-01 3.613996402283818909E+00
pair_coeff 18   63   9.173079805373214601E-02 3.731321013537728604E+00
pair_coeff 19    63   9.394171562323941349E-02 3.629181552027246127E+00
pair_coeff 20     63   4.558924194158552046E-02 2.890612938252534736E+00
pair_coeff 21      63   0.000000000000000000E+00 0.000000000000000000E+00
pair_coeff 22    63   0.000000000000000000E+00 0.000000000000000000E+00
pair_coeff 23      63   1.829229752084453597E-01 3.412450766679025804E+00
pair_coeff 24   63   3.870134779566036798E-01 2.312048303858599940E+00
pair_coeff 25   63   3.870134779566036798E-01 2.312048303858599940E+00
pair_coeff 26     63   0.000000000000000000E+00 0.000000000000000000E+00
pair_coeff 27   63   2.851615365059002039E-01 2.432779572685431102E+00
pair_coeff 28   63   7.408844137221298753E-02 2.608830419916517318E+00
pair_coeff 29   63   9.433877542933588600E-02 3.147003341746720917E+00
pair_coeff 30     63   1.322637179773560601E-01 3.464740650865038685E+00
pair_coeff 31      63   8.946853036768810663E-02 3.217228165191134082E+00
pair_coeff 32     63   1.484708808708911920E-01 3.495078421360915844E+00
pair_coeff 33     63   2.264229539116222045E-01 3.585070213178863874E+00
pair_coeff 34   63   1.336389819799702339E-01 3.560653177709135697E+00
pair_coeff 35   63   9.826654251385204264E-02 3.344324377350627486E+00
pair_coeff 36    63   1.934879819235730755E-02 3.314837128566866298E+00
pair_coeff 37    63   1.091377396407426786E-01 3.797240946022814256E+00
pair_coeff 38   63   8.645033846078624407E-02 3.459765786709836810E+00
pair_coeff 39  63   1.483283824011816243E-01 3.480031380188026713E+00
pair_coeff 40   63   3.808876520011451883E-02 2.784395644531571179E+00
pair_coeff 41  63   1.509123943959561898E-01 3.540184861358758983E+00
pair_coeff 42  63   1.233868915625870588E-01 3.632442892420324476E+00
pair_coeff 43  63   1.735276454440603799E-01 3.042879385206016973E+00
pair_coeff 44   63   6.321963230446354942E-02 3.645013616697617920E+00
pair_coeff 45  63   1.409832351434577025E-01 3.483858720647509788E+00
pair_coeff 46   63   7.803445218669756434E-02 3.291388759862927227E+00
pair_coeff 47   63   8.441398431086369336E-02 3.439887797278931458E+00
pair_coeff 48  63   9.271217547193744135E-02 3.714858247335717678E+00
pair_coeff 49   63   1.221324183648120482E-01 3.225305429523958711E+00
pair_coeff 50  63   8.783507458389137879E-02 3.633408719606690873E+00
pair_coeff 51  63   1.242055756137348393E-01 3.228107656677332127E+00
pair_coeff 52  63   1.117372856834838307E-01 3.382588026258317004E+00
pair_coeff 53   63   1.233868915625870588E-01 3.632442892420324476E+00
pair_coeff 54      63   2.479364039733781833E-01 3.681391142293968244E+00
pair_coeff 55  63   1.556763094898980793E-01 3.392864686204393188E+00
pair_coeff 56      63   6.978779891046651973E-02 3.550722727391420364E+00
pair_coeff 57     63   1.829229752084453597E-01 3.412450766679025804E+00
pair_coeff 58   63   0.000000000000000000E+00 0.000000000000000000E+00
pair_coeff 59  63   1.556763094898980793E-01 3.392864686204393188E+00
pair_coeff 60  63   2.065603242057677535E-01 3.705382311070042789E+00
pair_coeff 61  63   9.366502883019156567E-02 3.459865461359993954E+00
pair_coeff 62   63   1.013738251713232619E-01 3.706312556747750619E+00
pair_coeff 63   63   7.345736105118740034E-02 3.520525192477496734E+00
pair_coeff 1      64   2.736888169216060152E-01 2.785635403427779710E+00
pair_coeff 2     64   3.178362756028405567E-01 2.717064020712530947E+00
pair_coeff 3     64   2.488080153832781527E-01 2.830238629172332043E+00
pair_coeff 4     64   2.488080153832781527E-01 2.830238629172332043E+00
pair_coeff 5     64   1.951263461191829751E-01 2.983293017984591344E+00
pair_coeff 6      64   1.935636304516219763E-01 2.969513972355486864E+00
pair_coeff 7     64   1.935636304516219763E-01 2.969513972355486864E+00
pair_coeff 8     64   1.935636304516219763E-01 2.969513972355486864E+00
pair_coeff 9     64   1.935636304516219763E-01 2.969513972355486864E+00
pair_coeff 10     64   1.935636304516219763E-01 2.969513972355486864E+00
pair_coeff 11     64   1.935636304516219763E-01 2.969513972355486864E+00
pair_coeff 12      64   1.274562198392401313E-01 3.173055093606844679E+00
pair_coeff 13    64   2.023997576918816488E-02 4.320480452686580541E+00
pair_coeff 14    64   7.454388879317874750E-02 3.756479673344732539E+00
pair_coeff 15    64   1.550537739325613118E-01 3.382845224091495684E+00
pair_coeff 16    64   2.253463645766736745E-01 3.246083208107312768E+00
pair_coeff 17    64   2.720265680439789557E-01 3.229598752975045173E+00
pair_coeff 18   64   1.675315878319233176E-01 3.334444296805542329E+00
pair_coeff 19    64   1.715694741126911615E-01 3.243168755602641173E+00
pair_coeff 20     64   8.326143729888541012E-02 2.583156954670584149E+00
pair_coeff 21      64   0.000000000000000000E+00 0.000000000000000000E+00
pair_coeff 22    64   0.000000000000000000E+00 0.000000000000000000E+00
pair_coeff 23      64   3.340794709935869244E-01 3.049490235709929387E+00
pair_coeff 24   64   7.068180354917007469E-01 2.066130534673785490E+00
pair_coeff 25   64   7.068180354917007469E-01 2.066130534673785490E+00
pair_coeff 26     64   0.000000000000000000E+00 0.000000000000000000E+00
pair_coeff 27   64   5.208018028082631590E-01 2.174020391731148916E+00
pair_coeff 28   64   1.353106534166275132E-01 2.331345837965244083E+00
pair_coeff 29   64   1.722946401549686202E-01 2.812276753150826814E+00
pair_coeff 30     64   2.415584640648248682E-01 3.096218379836923162E+00
pair_coeff 31      64   1.633999188005277048E-01 2.875032211922354808E+00
pair_coeff 32     64   2.711582472501199992E-01 3.123329316001555611E+00
pair_coeff 33     64   4.135252041325190309E-01 3.203749257330099631E+00
pair_coeff 34   64   2.440701631553644779E-01 3.181929305529774155E+00
pair_coeff 35   64   1.794680766699055796E-01 2.988610014058173281E+00
pair_coeff 36    64   3.533747609942639034E-02 2.962259135058813886E+00
pair_coeff 37    64   1.993225743407424921E-01 3.393352748295836552E+00
pair_coeff 38   64   1.578876754398131910E-01 3.091772660117416471E+00
pair_coeff 39  64   2.708979966538037076E-01 3.109882732220449419E+00
pair_coeff 40   64   6.956301970462222539E-02 2.488237314150513413E+00
pair_coeff 41  64   2.756172800531233036E-01 3.163638072888010022E+00
pair_coeff 42  64   2.253463645766736745E-01 3.246083208107312768E+00
pair_coeff 43  64   3.169204083120440441E-01 2.719227794943182452E+00
pair_coeff 44   64   1.154605171527362945E-01 3.257316864959954650E+00
pair_coeff 45  64   2.574832634447348223E-01 3.113302982989749168E+00
pair_coeff 46   64   1.425174091778202701E-01 2.941304819144806793E+00
pair_coeff 47   64   1.541686012426736752E-01 3.074008965101800328E+00
pair_coeff 48  64   1.693239162605719161E-01 3.319732569598804695E+00
pair_coeff 49   64   2.230552705147563208E-01 2.882250349383768562E+00
pair_coeff 50  64   1.604166738389782576E-01 3.246946306442084040E+00
pair_coeff 51  64   2.268415596685240676E-01 2.884754521583377418E+00
pair_coeff 52  64   2.040702281868096157E-01 3.022803803713983939E+00
pair_coeff 53   64   2.253463645766736745E-01 3.246083208107312768E+00
pair_coeff 54      64   4.528160696330849611E-01 3.289825146160248348E+00
pair_coeff 55  64   2.843178067782592411E-01 3.031987401164613072E+00
pair_coeff 56      64   1.274562198392401313E-01 3.173055093606844679E+00
pair_coeff 57     64   3.340794709935869244E-01 3.049490235709929387E+00
pair_coeff 58   64   0.000000000000000000E+00 0.000000000000000000E+00
pair_coeff 59  64   2.843178067782592411E-01 3.031987401164613072E+00
pair_coeff 60  64   3.772492971989485633E-01 3.311264527979406402E+00
pair_coeff 61  64   1.710641500693499129E-01 3.091861733013461677E+00
pair_coeff 62   64   1.851430299952198100E-01 3.312095829382690759E+00
pair_coeff 63   64   1.341580864437666998E-01 3.146069477063536013E+00
pair_coeff 64   64   2.450182241873804789E-01 2.811442217672497801E+00
pair_coeff 1      65   3.029649478331380430E-01 3.149235865916097055E+00
pair_coeff 2     65   1.859589305005138193E-01 3.416130186772377453E+00
pair_coeff 3     65   2.790141736360602920E-01 3.192759521648344645E+00
pair_coeff 4     65   2.790141736360602920E-01 3.192759521648344645E+00
pair_coeff 5     65   2.440785913349041991E-01 3.304687669158851371E+00
pair_coeff 6      65   1.476955362938090210E-01 3.571891367671221396E+00
pair_coeff 7     65   1.476955362938090210E-01 3.571891367671221396E+00
pair_coeff 8     65   1.476955362938090210E-01 3.571891367671221396E+00
pair_coeff 9     65   1.476955362938090210E-01 3.571891367671221396E+00
pair_coeff 10     65   1.476955362938090210E-01 3.571891367671221396E+00
pair_coeff 11     65   1.476955362938090210E-01 3.571891367671221396E+00
pair_coeff 12      65   9.725336675705262279E-02 3.816721592661593387E+00
pair_coeff 13    65   1.544377974741017144E-02 5.196906624050063428E+00
pair_coeff 14    65   5.687948509255881524E-02 4.518496105074461866E+00
pair_coeff 15    65   1.183112253160199800E-01 4.069068462579280343E+00
pair_coeff 16    65   1.719468274611148095E-01 3.904563742659835412E+00
pair_coeff 17    65   2.075653869462910639E-01 3.884735352042429479E+00
pair_coeff 18   65   1.278322154490358076E-01 4.010849219979507829E+00
pair_coeff 19    65   1.309132579896203075E-01 3.901058082191544596E+00
pair_coeff 20     65   6.353126672484969706E-02 3.107160334527358625E+00
pair_coeff 21      65   0.000000000000000000E+00 0.000000000000000000E+00
pair_coeff 22    65   0.000000000000000000E+00 0.000000000000000000E+00
pair_coeff 23      65   2.549138312710149123E-01 3.668091125393774021E+00
pair_coeff 24   65   5.393258463406160885E-01 2.485253105385875294E+00
pair_coeff 25   65   5.393258463406160885E-01 2.485253105385875294E+00
pair_coeff 26     65   0.000000000000000000E+00 0.000000000000000000E+00
pair_coeff 27   65   3.973892274549682413E-01 2.615028837263234429E+00
pair_coeff 28   65   1.032465627763134441E-01 2.804268358797742167E+00
pair_coeff 29   65   1.314665839799746549E-01 3.382757970360330546E+00
pair_coeff 30     65   1.843172026331671987E-01 3.724298254300499433E+00
pair_coeff 31      65   1.246796135270904909E-01 3.458243616680580335E+00
pair_coeff 32     65   2.069028290834072914E-01 3.756908748730711789E+00
pair_coeff 33     65   3.155335878587179343E-01 3.853642186220550769E+00
pair_coeff 34   65   1.862337132055325029E-01 3.827395972798371737E+00
pair_coeff 35   65   1.369401564205784128E-01 3.594861115296422938E+00
pair_coeff 36    65   2.696367841209141095E-02 3.563164858567346549E+00
pair_coeff 37    65   1.520898034616910699E-01 4.081707478711374293E+00
pair_coeff 38   65   1.204735871292430399E-01 3.718950703139931591E+00
pair_coeff 39  65   2.067042491574984375E-01 3.740734473418478423E+00
pair_coeff 40   65   5.307891507056041597E-02 2.992985877780431903E+00
pair_coeff 41  65   2.103052205329510593E-01 3.805394292865085681E+00
pair_coeff 42  65   1.719468274611148095E-01 3.904563742659835412E+00
pair_coeff 43  65   2.418208914499519191E-01 3.270833671068669624E+00
pair_coeff 44   65   8.810024363484980636E-02 3.918076190256606139E+00
pair_coeff 45  65   1.964683581952911540E-01 3.744848535285795421E+00
pair_coeff 46   65   1.087455589183283500E-01 3.537959878619287846E+00
pair_coeff 47   65   1.176358088917642403E-01 3.697583573880764529E+00
pair_coeff 48  65   1.291998221004829195E-01 3.993153162004202006E+00
pair_coeff 49   65   1.701986459179967992E-01 3.466925981245660537E+00
pair_coeff 50  65   1.224032976537840489E-01 3.905601923830262834E+00
pair_coeff 51  65   1.730877114197359179E-01 3.469938134462050350E+00
pair_coeff 52  65   1.557124224386972067E-01 3.635991247444840813E+00
pair_coeff 53   65   1.719468274611148095E-01 3.904563742659835412E+00
pair_coeff 54      65   3.455138348607721954E-01 3.957178902039792057E+00
pair_coeff 55  65   2.169440139762717490E-01 3.647037773160310081E+00
pair_coeff 56      65   9.725336675705262279E-02 3.816721592661593387E+00
pair_coeff 57     65   2.549138312710149123E-01 3.668091125393774021E+00
pair_coeff 58   65   0.000000000000000000E+00 0.000000000000000000E+00
pair_coeff 59  65   2.169440139762717490E-01 3.647037773160310081E+00
pair_coeff 60  65   2.878538552736386591E-01 3.982967345388086056E+00
pair_coeff 61  65   2.139798013299897272E-01 3.424952655417128344E+00
pair_coeff 62   65   1.412703359737776110E-01 3.983967279496484881E+00
pair_coeff 63   65   1.023671155538469490E-01 3.784261839422624174E+00
pair_coeff 64   65   1.869571155422015130E-01 3.381754146132254668E+00
pair_coeff 65   65   1.426545440355874161E-01 4.067756055235738799E+00
pair_coeff 1      66   4.547358060207790653E-01 2.888292173693689513E+00
pair_coeff 2     66   2.791154051078111320E-01 3.133071799912078959E+00
pair_coeff 3     66   4.187868466206033369E-01 2.928209486837023423E+00
pair_coeff 4     66   4.187868466206033369E-01 2.928209486837023423E+00
pair_coeff 5     66   3.663502189178132196E-01 3.030863338829969500E+00
pair_coeff 6      66   1.833232912906428147E-01 3.381325076733848078E+00
pair_coeff 7     66   1.833232912906428147E-01 3.381325076733848078E+00
pair_coeff 8     66   1.833232912906428147E-01 3.381325076733848078E+00
pair_coeff 9     66   1.833232912906428147E-01 3.381325076733848078E+00
pair_coeff 10     66   1.833232912906428147E-01 3.381325076733848078E+00
pair_coeff 11     66   1.833232912906428147E-01 3.381325076733848078E+00
pair_coeff 12      66   1.207132438148451475E-01 3.613093205741105152E+00
pair_coeff 13    66   1.916919498251404980E-02 4.919643091161947979E+00
pair_coeff 14    66   7.060020008554598880E-02 4.277426891393306008E+00
pair_coeff 15    66   1.468507699407754774E-01 3.851976954281385979E+00
pair_coeff 16    66   2.134245836275632802E-01 3.696248832273197671E+00
pair_coeff 17    66   2.576352058285252822E-01 3.677478318972391413E+00
pair_coeff 18   66   1.586684544241984962E-01 3.796863804219543059E+00
pair_coeff 19    66   1.624927193500039502E-01 3.692930204568213970E+00
pair_coeff 20     66   7.885655320479272035E-02 2.941388210084320498E+00
pair_coeff 21      66   0.000000000000000000E+00 0.000000000000000000E+00
pair_coeff 22    66   0.000000000000000000E+00 0.000000000000000000E+00
pair_coeff 23      66   3.164052463383004721E-01 3.472392418844832296E+00
pair_coeff 24   66   6.694243557407878464E-01 2.352660756519802554E+00
pair_coeff 25   66   6.694243557407878464E-01 2.352660756519802554E+00
pair_coeff 26     66   0.000000000000000000E+00 0.000000000000000000E+00
pair_coeff 27   66   4.932491727818341110E-01 2.475512739231275461E+00
pair_coeff 28   66   1.281521444557910949E-01 2.654656020425442797E+00
pair_coeff 29   66   1.631795210249484540E-01 3.202282257861074122E+00
pair_coeff 30     66   2.287789941124505622E-01 3.525600804795111287E+00
pair_coeff 31      66   1.547553682540754594E-01 3.273740620549896452E+00
pair_coeff 32     66   2.568128228971093829E-01 3.556471475605421873E+00
pair_coeff 33     66   3.916479623591037629E-01 3.648044024788604123E+00
pair_coeff 34   66   2.311578136403500405E-01 3.623198090106222846E+00
pair_coeff 35   66   1.699734522439199091E-01 3.403069350469131837E+00
pair_coeff 36    66   3.346797334466397600E-02 3.373064141271939320E+00
pair_coeff 37    66   1.887775625586927686E-01 3.863941658073751118E+00
pair_coeff 38   66   1.495347460074094303E-01 3.520538554301717582E+00
pair_coeff 39  66   2.565663406640278366E-01 3.541160124536279596E+00
pair_coeff 40   66   6.588284015242455716E-02 2.833305148764191372E+00
pair_coeff 41  66   2.610359539032401366E-01 3.602370236056116504E+00
pair_coeff 42  66   2.134245836275632802E-01 3.696248832273197671E+00
pair_coeff 43  66   3.001539710398187233E-01 3.096329304387715808E+00
pair_coeff 44   66   1.093521648109900685E-01 3.709040368522185549E+00
pair_coeff 45  66   2.438613038865376503E-01 3.545054694423006580E+00
pair_coeff 46   66   1.349776321912045940E-01 3.349203888541882890E+00
pair_coeff 47   66   1.460124266502917378E-01 3.500311396601526681E+00
pair_coeff 48  66   1.603659610572732153E-01 3.780111860100299648E+00
pair_coeff 49   66   2.112546981841710303E-01 3.281959766656903810E+00
pair_coeff 50  66   1.519299496369445057E-01 3.697231624767261415E+00
pair_coeff 51  66   2.148406765408863717E-01 3.284811216535175493E+00
pair_coeff 52  66   1.932740453273771308E-01 3.442005122285029639E+00
pair_coeff 53   66   2.134245836275632802E-01 3.696248832273197671E+00
pair_coeff 54      66   4.288601739941917956E-01 3.746056886190522572E+00
pair_coeff 55  66   2.692761857664918157E-01 3.452462297648919431E+00
pair_coeff 56      66   1.207132438148451475E-01 3.613093205741105152E+00
pair_coeff 57     66   3.164052463383004721E-01 3.472392418844832296E+00
pair_coeff 58   66   0.000000000000000000E+00 0.000000000000000000E+00
pair_coeff 59  66   2.692761857664918157E-01 3.452462297648919431E+00
pair_coeff 60  66   3.572912051620057983E-01 3.770469473586865128E+00
pair_coeff 61  66   3.211733836732513225E-01 3.141163244384396869E+00
pair_coeff 62   66   1.753481764061503856E-01 3.771416059562691103E+00
pair_coeff 63   66   1.270605531769710694E-01 3.582365233831064533E+00
pair_coeff 64   66   2.320557182122369999E-01 3.201331989309867510E+00
pair_coeff 65   66   1.770662891134783812E-01 3.850734566032467665E+00
pair_coeff 66   66   2.197789839249462973E-01 3.645291530929309243E+00
pair_coeff 1      67   1.691446126797976623E-01 2.985294938784757601E+00
pair_coeff 2     67   1.038204303792348571E-01 3.238295444039348325E+00
pair_coeff 3     67   1.557729521826987651E-01 3.026552867598893748E+00
pair_coeff 4     67   1.557729521826987651E-01 3.026552867598893748E+00
pair_coeff 5     67   1.362684993430692826E-01 3.132654330460733050E+00
pair_coeff 6      67   1.059571877347386532E-01 3.247362366332479766E+00
pair_coeff 7     67   9.149991811937653596E-02 3.327737337717295407E+00
pair_coeff 8     67   6.710391648259360353E-02 3.504245404295543764E+00
pair_coeff 9     67   1.118277109009218756E-01 3.218307850690846461E+00
pair_coeff 10     67   9.584488629822959793E-02 3.302105917046649353E+00
pair_coeff 11     67   1.037675482704622926E-01 3.258683872122532410E+00
pair_coeff 12      67   1.015608295071512290E-01 3.259466857310918897E+00
pair_coeff 13    67   1.612780240082512320E-02 4.438140034683073054E+00
pair_coeff 14    67   5.939874248642398880E-02 3.858779830233354247E+00
pair_coeff 15    67   1.235513646855942310E-01 3.474970199400187365E+00
pair_coeff 16    67   1.795625489418590515E-01 3.334483745402706312E+00
pair_coeff 17    67   2.167586951297953424E-01 3.317550369341032201E+00
pair_coeff 18   67   1.334940503517269006E-01 3.425251170357942243E+00
pair_coeff 19    67   1.367115557872998488E-01 3.331489923654913365E+00
pair_coeff 20     67   6.634513912854232698E-02 2.653504030845614370E+00
pair_coeff 21      67   0.000000000000000000E+00 0.000000000000000000E+00
pair_coeff 22    67   0.000000000000000000E+00 0.000000000000000000E+00
pair_coeff 23      67   2.662042561611659419E-01 3.132536959416989397E+00
pair_coeff 24   67   1.570569025311612521E-01 2.625806260038883178E+00
pair_coeff 25   67   8.637937685043090008E-02 2.900929489772888559E+00
pair_coeff 26     67   0.000000000000000000E+00 0.000000000000000000E+00
pair_coeff 27   67   3.637073185416969667E-01 2.282864724856101368E+00
pair_coeff 28   67   9.449559248627407981E-02 2.448066814448311757E+00
pair_coeff 29   67   1.203237416459956299E-01 2.953075978826793957E+00
pair_coeff 30     67   1.924808221665462171E-01 3.180537650420577123E+00
pair_coeff 31      67   8.111532584620605169E-02 3.195685452558168382E+00
pair_coeff 32     67   1.893661628589180523E-01 3.279701674707491854E+00
pair_coeff 33     67   2.887895977576290796E-01 3.364147914463202049E+00
pair_coeff 34   67   1.944822171822568335E-01 3.268582740519445640E+00
pair_coeff 35   67   1.253333851332271154E-01 3.138237526839545488E+00
pair_coeff 36    67   2.467829144763044116E-02 3.110567366814649404E+00
pair_coeff 37    67   1.391989786659572903E-01 3.563244078823733396E+00
pair_coeff 38   67   1.258094999745671128E-01 3.175970860479923275E+00
pair_coeff 39  67   2.158594165642706009E-01 3.194574123915934649E+00
pair_coeff 40   67   5.542984087504426033E-02 2.555999445121150515E+00
pair_coeff 41  67   2.196198790769573750E-01 3.249793383002357761E+00
pair_coeff 42  67   1.795625489418590515E-01 3.334483745402706312E+00
pair_coeff 43  67   1.705399805009815140E-01 2.982149521307246864E+00
pair_coeff 44   67   9.200230410212105470E-02 3.346023328270764097E+00
pair_coeff 45  67   2.051701662942675142E-01 3.198087518325217538E+00
pair_coeff 46   67   9.952850481329482413E-02 3.088563953776058746E+00
pair_coeff 47   67   1.228460332960751161E-01 3.157723407013565797E+00
pair_coeff 48  67   1.349222298646011453E-01 3.410138798895884893E+00
pair_coeff 49   67   1.557729521826987651E-01 3.026552867598893748E+00
pair_coeff 50  67   1.278246795834196148E-01 3.335370348482007863E+00
pair_coeff 51  67   1.584171463231851262E-01 3.029182413485949965E+00
pair_coeff 52  67   1.425145517695953212E-01 3.174143260066013106E+00
pair_coeff 53   67   1.795625489418590515E-01 3.334483745402706312E+00
pair_coeff 54      67   3.608170374432017602E-01 3.379416907025193595E+00
pair_coeff 55  67   2.265527122683737016E-01 3.114557470430365349E+00
pair_coeff 56      67   1.015608295071512290E-01 3.259466857310918897E+00
pair_coeff 57     67   2.662042561611659419E-01 3.132536959416989397E+00
pair_coeff 58   67   0.000000000000000000E+00 0.000000000000000000E+00
pair_coeff 59  67   2.265527122683737016E-01 3.114557470430365349E+00
pair_coeff 60  67   3.006032314691269858E-01 3.401440147220920363E+00
pair_coeff 61  67   1.194644161845258429E-01 3.246658638196322055E+00
pair_coeff 62   67   2.135172342494472131E-01 3.198981952667974138E+00
pair_coeff 63   67   1.069010720818995841E-01 3.231746341860607608E+00
pair_coeff 64   67   1.952376598350860082E-01 2.888006183129844473E+00
pair_coeff 65   67   2.140384144044120418E-01 3.270244578605614905E+00
pair_coeff 66   67   3.212613590771104533E-01 2.999274180977609561E+00
pair_coeff 67   67   1.194971397251269885E-01 3.100004256511835088E+00
pair_coeff 1      68     4.228207516674085675E-01 3.056859151858752899E+00
pair_coeff 2     68     4.910239828909634396E-01 2.981611307668237565E+00
pair_coeff 3     68     3.843825015158260361E-01 3.105805176400184386E+00
pair_coeff 4     68     3.843825015158260361E-01 3.105805176400184386E+00
pair_coeff 5     68     3.014499067379129427E-01 3.273761725414885415E+00
pair_coeff 6      68     2.990356735930130294E-01 3.258641081240354787E+00
pair_coeff 7     68     2.990356735930130294E-01 3.258641081240354787E+00
pair_coeff 8     68     2.990356735930130294E-01 3.258641081240354787E+00
pair_coeff 9     68     2.990356735930130294E-01 3.258641081240354787E+00
pair_coeff 10     68     2.990356735930130294E-01 3.258641081240354787E+00
pair_coeff 11     68     2.990356735930130294E-01 3.258641081240354787E+00
pair_coeff 12      68     1.969066010196180716E-01 3.482000009875157343E+00
pair_coeff 13    68     3.126865710011655919E-02 4.741144586247799886E+00
pair_coeff 14    68     1.151625537581669190E-01 4.122229798668242573E+00
pair_coeff 15    68     2.395419512585078570E-01 3.712216383328954539E+00
pair_coeff 16    68     3.481366916176150683E-01 3.562138516112925313E+00
pair_coeff 17    68     4.202527500668978289E-01 3.544049049891872194E+00
pair_coeff 18   68     2.588188757285546648E-01 3.659102893548325852E+00
pair_coeff 19    68     2.650569899912606497E-01 3.558940297566233646E+00
pair_coeff 20     68     1.286302593565866181E-01 2.834666362961839603E+00
pair_coeff 21      68     0.000000000000000000E+00 0.000000000000000000E+00
pair_coeff 22    68     0.000000000000000000E+00 0.000000000000000000E+00
pair_coeff 23      68     5.161180300714267588E-01 3.346404243736659900E+00
pair_coeff 24   68     1.091960338095528060E+00 2.267299599251422659E+00
pair_coeff 25   68     1.091960338095528060E+00 2.267299599251422659E+00
pair_coeff 26     68     0.000000000000000000E+00 0.000000000000000000E+00
pair_coeff 27   68     8.045846089363817288E-01 2.385694166082639622E+00
pair_coeff 28   68     2.090408838393064406E-01 2.558337624572998514E+00
pair_coeff 29   68     2.661772960911888974E-01 3.086094440015471729E+00
pair_coeff 30     68     3.731826988633197284E-01 3.397682079611450412E+00
pair_coeff 31      68     2.524358768718786838E-01 3.154960092081345202E+00
pair_coeff 32     68     4.189112847674477114E-01 3.427432675553883090E+00
pair_coeff 33     68     6.388534234294728220E-01 3.515682714787159213E+00
pair_coeff 34   68     3.770630126787305469E-01 3.491738260580458331E+00
pair_coeff 35   68     2.772595092901040115E-01 3.279596411493302277E+00
pair_coeff 36    68     5.459272459301211383E-02 3.250679875779549644E+00
pair_coeff 37    68     3.079326428276232264E-01 3.723746973975487151E+00
pair_coeff 38   68     2.439200342906357177E-01 3.392803501821101797E+00
pair_coeff 39  68     4.185092246687046047E-01 3.412676863417832607E+00
pair_coeff 40   68     1.074676291512047521E-01 2.730504859465051837E+00
pair_coeff 41  68     4.258000265972445297E-01 3.471666099725899457E+00
pair_coeff 42  68     3.481366916176150683E-01 3.562138516112925313E+00
pair_coeff 43  68     4.896090631997686571E-01 2.983985758054453097E+00
pair_coeff 44   68     1.783744882218230021E-01 3.574465939406219039E+00
pair_coeff 45  68     3.977848573281826949E-01 3.416430127342078293E+00
pair_coeff 46   68     2.201745718076525138E-01 3.227685340208292786E+00
pair_coeff 47   68     2.381744515327116618E-01 3.373310242361340361E+00
pair_coeff 48  68     2.615878367038697028E-01 3.642958757134699077E+00
pair_coeff 49   68     3.445971896229899079E-01 3.162881024422723453E+00
pair_coeff 50  68     2.478270737383122535E-01 3.563085650127790327E+00
pair_coeff 51  68     3.504466124968692586E-01 3.165629015669813917E+00
pair_coeff 52  68     3.152672741451525984E-01 3.317119483865758500E+00
pair_coeff 53   68     3.481366916176150683E-01 3.562138516112925313E+00
pair_coeff 54      68     6.995537233959522316E-01 3.610139393576149658E+00
pair_coeff 55  68     4.392414353153730744E-01 3.327197243460355836E+00
pair_coeff 56      68     1.969066010196180716E-01 3.482000009875157343E+00
pair_coeff 57     68     5.161180300714267588E-01 3.346404243736659900E+00
pair_coeff 58   68     0.000000000000000000E+00 0.000000000000000000E+00
pair_coeff 59  68     4.392414353153730744E-01 3.327197243460355836E+00
pair_coeff 60  68     5.828109208179663714E-01 3.633666223556641928E+00
pair_coeff 61  68     2.642763169106269738E-01 3.392901247311097990E+00
pair_coeff 62   68     2.860267218407508971E-01 3.634578464727707292E+00
pair_coeff 63   68     2.072602877620044470E-01 3.452386935315056249E+00
pair_coeff 64   68     3.785276683511555329E-01 3.085178649883229873E+00
pair_coeff 65   68     2.888292953006066366E-01 3.711019072424234899E+00
pair_coeff 66   68     3.585019450441149225E-01 3.513030089156019553E+00
pair_coeff 67   68     2.643487071424846513E-01 3.239640960354239319E+00
pair_coeff 68     68     5.847858712655799041E-01 3.385567464934501558E+00
pair_coeff 1      69      4.228207516674085675E-01 3.056859151858752899E+00
pair_coeff 2     69      4.910239828909634396E-01 2.981611307668237565E+00
pair_coeff 3     69      3.843825015158260361E-01 3.105805176400184386E+00
pair_coeff 4     69      3.843825015158260361E-01 3.105805176400184386E+00
pair_coeff 5     69      3.014499067379129427E-01 3.273761725414885415E+00
pair_coeff 6      69      2.990356735930130294E-01 3.258641081240354787E+00
pair_coeff 7     69      2.990356735930130294E-01 3.258641081240354787E+00
pair_coeff 8     69      2.990356735930130294E-01 3.258641081240354787E+00
pair_coeff 9     69      2.990356735930130294E-01 3.258641081240354787E+00
pair_coeff 10     69      2.990356735930130294E-01 3.258641081240354787E+00
pair_coeff 11     69      2.990356735930130294E-01 3.258641081240354787E+00
pair_coeff 12      69      1.969066010196180716E-01 3.482000009875157343E+00
pair_coeff 13    69      3.126865710011655919E-02 4.741144586247799886E+00
pair_coeff 14    69      1.151625537581669190E-01 4.122229798668242573E+00
pair_coeff 15    69      2.395419512585078570E-01 3.712216383328954539E+00
pair_coeff 16    69      3.481366916176150683E-01 3.562138516112925313E+00
pair_coeff 17    69      4.202527500668978289E-01 3.544049049891872194E+00
pair_coeff 18   69      2.588188757285546648E-01 3.659102893548325852E+00
pair_coeff 19    69      2.650569899912606497E-01 3.558940297566233646E+00
pair_coeff 20     69      1.286302593565866181E-01 2.834666362961839603E+00
pair_coeff 21      69      0.000000000000000000E+00 0.000000000000000000E+00
pair_coeff 22    69      0.000000000000000000E+00 0.000000000000000000E+00
pair_coeff 23      69      5.161180300714267588E-01 3.346404243736659900E+00
pair_coeff 24   69      1.091960338095528060E+00 2.267299599251422659E+00
pair_coeff 25   69      1.091960338095528060E+00 2.267299599251422659E+00
pair_coeff 26     69      0.000000000000000000E+00 0.000000000000000000E+00
pair_coeff 27   69      8.045846089363817288E-01 2.385694166082639622E+00
pair_coeff 28   69      2.090408838393064406E-01 2.558337624572998514E+00
pair_coeff 29   69      2.661772960911888974E-01 3.086094440015471729E+00
pair_coeff 30     69      3.731826988633197284E-01 3.397682079611450412E+00
pair_coeff 31      69      2.524358768718786838E-01 3.154960092081345202E+00
pair_coeff 32     69      4.189112847674477114E-01 3.427432675553883090E+00
pair_coeff 33     69      6.388534234294728220E-01 3.515682714787159213E+00
pair_coeff 34   69      3.770630126787305469E-01 3.491738260580458331E+00
pair_coeff 35   69      2.772595092901040115E-01 3.279596411493302277E+00
pair_coeff 36    69      5.459272459301211383E-02 3.250679875779549644E+00
pair_coeff 37    69      3.079326428276232264E-01 3.723746973975487151E+00
pair_coeff 38   69      2.439200342906357177E-01 3.392803501821101797E+00
pair_coeff 39  69      4.185092246687046047E-01 3.412676863417832607E+00
pair_coeff 40   69      1.074676291512047521E-01 2.730504859465051837E+00
pair_coeff 41  69      4.258000265972445297E-01 3.471666099725899457E+00
pair_coeff 42  69      3.481366916176150683E-01 3.562138516112925313E+00
pair_coeff 43  69      4.896090631997686571E-01 2.983985758054453097E+00
pair_coeff 44   69      1.783744882218230021E-01 3.574465939406219039E+00
pair_coeff 45  69      3.977848573281826949E-01 3.416430127342078293E+00
pair_coeff 46   69      2.201745718076525138E-01 3.227685340208292786E+00
pair_coeff 47   69      2.381744515327116618E-01 3.373310242361340361E+00
pair_coeff 48  69      2.615878367038697028E-01 3.642958757134699077E+00
pair_coeff 49   69      3.445971896229899079E-01 3.162881024422723453E+00
pair_coeff 50  69      2.478270737383122535E-01 3.563085650127790327E+00
pair_coeff 51  69      3.504466124968692586E-01 3.165629015669813917E+00
pair_coeff 52  69      3.152672741451525984E-01 3.317119483865758500E+00
pair_coeff 53   69      3.481366916176150683E-01 3.562138516112925313E+00
pair_coeff 54      69      6.995537233959522316E-01 3.610139393576149658E+00
pair_coeff 55  69      4.392414353153730744E-01 3.327197243460355836E+00
pair_coeff 56      69      1.969066010196180716E-01 3.482000009875157343E+00
pair_coeff 57     69      5.161180300714267588E-01 3.346404243736659900E+00
pair_coeff 58   69      0.000000000000000000E+00 0.000000000000000000E+00
pair_coeff 59  69      4.392414353153730744E-01 3.327197243460355836E+00
pair_coeff 60  69      5.828109208179663714E-01 3.633666223556641928E+00
pair_coeff 61  69      2.642763169106269738E-01 3.392901247311097990E+00
pair_coeff 62   69      2.860267218407508971E-01 3.634578464727707292E+00
pair_coeff 63   69      2.072602877620044470E-01 3.452386935315056249E+00
pair_coeff 64   69      3.785276683511555329E-01 3.085178649883229873E+00
pair_coeff 65   69      2.888292953006066366E-01 3.711019072424234899E+00
pair_coeff 66   69      3.585019450441149225E-01 3.513030089156019553E+00
pair_coeff 67   69      2.643487071424846513E-01 3.239640960354239319E+00
pair_coeff 68     69      5.847858712655799041E-01 3.385567464934501558E+00
pair_coeff 69      69      5.847858712655799041E-01 3.385567464934501558E+00

#           bond_id     k_harmonic               r0
bond_coeff 1    3.752390057361376989E+02 1.0000000000E+00
bond_coeff 2    4.469407265774378857E+02 1.0000000000E+00
bond_coeff 3    3.492741395793498782E+02 1.0900000000E+00
bond_coeff 4    1.109292543021032543E+03 1.1200000000E+00
bond_coeff 5    6.002423518164436018E+02 1.2300000000E+00
bond_coeff 6    5.004182600382409305E+02 1.2500000000E+00
bond_coeff 7    4.997323135755258363E+02 1.3200000000E+00
bond_coeff 8    3.750034177820267587E+02 1.3300000000E+00
bond_coeff 9    4.481438814531548473E+02 1.3300000000E+00
bond_coeff 10   4.988771510516252761E+02 1.3300000000E+00
bond_coeff 11   4.506166347992351575E+02 1.3400000000E+00
bond_coeff 12   5.021156787762906788E+02 1.3400000000E+00
bond_coeff 13   4.509063097514340939E+02 1.3600000000E+00
bond_coeff 14   5.006787762906309922E+02 1.3800000000E+00
bond_coeff 15   3.999040630975143245E+02 1.3900000000E+00
bond_coeff 16   4.987256214149139169E+02 1.3900000000E+00
bond_coeff 17   4.000573613766730432E+02 1.4000000000E+00
bond_coeff 18   3.997916347992352257E+02 1.4300000000E+00
bond_coeff 19   4.501321462715105213E+02 1.4300000000E+00
bond_coeff 20   3.002216180688336635E+02 1.4350000000E+00
bond_coeff 21   4.498431883365200861E+02 1.4700000000E+00
bond_coeff 22   2.999759082217973400E+02 1.4800000000E+00
bond_coeff 23   3.999678776290630822E+02 1.4800000000E+00
bond_coeff 24   4.502256214149139737E+02 1.4800000000E+00
bond_coeff 25   4.501075525812619276E+02 1.5000000000E+00
bond_coeff 26   2.998439770554493293E+02 1.5200000000E+00
bond_coeff 27   4.000342973231357746E+02 1.5300000000E+00
bond_coeff 28   2.998509560229445583E+02 1.6100000000E+00
bond_coeff 29   2.997267686424473823E+02 1.6300000000E+00
bond_coeff 30   2.059762906309751429E+02 1.7800000000E+00
bond_coeff 31   4.498158699808795404E+02 1.7800000000E+00
bond_coeff 32   4.498283460803058915E+02 1.8300000000E+00
bond_coeff 33   3.000447179732313998E+02 1.8700000000E+00
bond_coeff 34   5.996787762906310348E+01 1.9800000000E+00
bond_coeff 35   6.003824091778202643E+01 2.0000000000E+00
bond_coeff 36   5.003070745697896768E+02 2.0400000000E+00
bond_coeff 37   6.303570745697896882E+01 2.2100000000E+00
bond_coeff 38   5.544933078393881942E+02 1.0000000000E+00
bond_coeff 39   3.499282982791586960E+02 1.1000000000E+00
bond_coeff 40   5.997939651051625560E+02 1.7580000000E+00
bond_coeff 41   4.498287762906309695E+02 1.5300000000E+00
bond_coeff 42   4.443412045889101023E+02 1.9379900000E+00
bond_coeff 43   5.996787762906310491E+02 1.7600000000E+00
bond_coeff 44   5.010264698852772653E+02 1.2650000000E+00
bond_coeff 45   4.486555927342256496E+02 1.3500000000E+00
bond_coeff 46   5.551285014340344333E+02 1.6329900000E+00
bond_coeff 47   3.502490798279158639E+02 2.3383900000E+00
bond_coeff 48   6.001610301147227347E+02 2.9028300000E+00
bond_coeff 49   4.458838312619503199E+02 2.7938800000E+00
bond_coeff 50   4.438154039196940630E+02 2.9118900000E+00
bond_coeff 51   4.093283460803059484E+02 2.0770000000E+00
bond_coeff 52   6.001731835564053199E+02 2.8740700000E+00
bond_coeff 53   8.843212237093690931E+01 1.1000000000E+00
bond_coeff 54   5.616634799235181674E+01 1.8400000000E+00
bond_coeff 55   5.138623326959847191E+02 1.0100000000E+00
bond_coeff 56   3.107074569789675138E+02 1.4100000000E+00
bond_coeff 57   4.421606118546845323E+02 1.0200000000E+00
bond_coeff 58   2.390057361376672986E+02 1.4600000000E+00
bond_coeff 59   5.138623326959847191E+02 1.2900000000E+00
bond_coeff 60   4.421606118546845323E+02 9.7200000000E-01
bond_coeff 61   8.126195028680688210E+02 1.2200000000E+00
bond_coeff 62   4.660611854684512423E+02 1.2200000000E+00
bond_coeff 63   2.390057361376672986E+02 1.5400000000E+00
bond_coeff 64   1.792543021032504669E+02 1.5600000000E+00
bond_coeff 65   2.270554493307839437E+02 1.5400000000E+00
bond_coeff 66   1.063575525812619560E+02 1.7600000000E+00
bond_coeff 67   1.314531548757170185E+02 1.6900000000E+00
bond_coeff 68   2.031548757170172053E+02 1.7500000000E+00
bond_coeff 69   2.031548757170172053E+02 1.5100000000E+00
bond_coeff 70   1.434034416826003735E+02 1.5700000000E+00
bond_coeff 71   1.792543021032504669E+02 9.7100000000E-01
bond_coeff 72   1.912045889101338503E+02 1.5000000000E+00
bond_coeff 73   2.629063097514340370E+02 1.4500000000E+00
bond_coeff 74   5.497131931166347840E+02 1.5200000000E+00
bond_coeff 75   8.365200764818355594E+01 1.0300000000E+00
bond_coeff 76   1.912045889101338503E+02 1.7400000000E+00
bond_coeff 77   1.912045889101338503E+02 1.7200000000E+00
bond_coeff 78   2.270554493307839437E+02 1.6400000000E+00
bond_coeff 79   2.031548757170172053E+02 1.6700000000E+00
bond_coeff 80   1.912045889101338503E+02 1.6600000000E+00
bond_coeff 81   2.151051625239005887E+02 1.6500000000E+00
bond_coeff 82   5.138623326959847191E+02 1.3100000000E+00
bond_coeff 83   1.553537284894837569E+02 1.0100000000E+00
bond_coeff 84   3.585086042065009337E+01 1.8900000000E+00
bond_coeff 85   1.015774378585086026E+02 1.9300000000E+00
bond_coeff 86   1.553537284894837569E+02 1.3600000000E+00
bond_coeff 87   1.673040152963671119E+02 1.7900000000E+00
bond_coeff 88   1.147227533460803102E+02 1.3500000000E+00
bond_coeff 89   1.553537284894837569E+02 1.3900000000E+00
bond_coeff 90   2.031548757170172053E+02 1.3800000000E+00
bond_coeff 91   2.270554493307839437E+02 9.8300000000E-01
bond_coeff 92   1.553537284894837569E+02 1.3000000000E+00
bond_coeff 93   4.182600382409177655E+02 1.0800000000E+00
bond_coeff 94   1.553537284894837569E+02 1.9000000000E+00
bond_coeff 95   1.314531548757170185E+03 1.1600000000E+00
bond_coeff 96   1.434034416826003735E+02 1.8000000000E+00
bond_coeff 97   1.553537284894837569E+02 1.4200000000E+00
bond_coeff 98   4.780114722753345973E+02 9.8400000000E-01
bond_coeff 99   1.195028680688336493E+02 1.0800000000E+00
bond_coeff 100  1.195028680688336493E+02 1.9100000000E+00
bond_coeff 101  4.182600382409177655E+02 1.0300000000E+00
bond_coeff 102  5.258126195028680741E+02 1.2800000000E+00
bond_coeff 103  1.314531548757170185E+02 1.2200000000E+00
bond_coeff 104  1.434034416826003735E+02 1.1100000000E+00
bond_coeff 105  1.195028680688336635E+03 1.2100000000E+00
bond_coeff 106  4.660611854684512423E+02 1.0700000000E+00
bond_coeff 107  9.560229445506691945E+02 1.2100000000E+00
bond_coeff 108  6.931166347992351575E+02 1.2100000000E+00
bond_coeff 109  8.723709369024857097E+01 1.8500000000E+00
bond_coeff 110  3.943594646271510555E+02 1.1100000000E+00
bond_coeff 111  1.099426386233269568E+02 2.0900000000E+00
bond_coeff 112  1.314531548757170185E+02 1.8200000000E+00
bond_coeff 113  9.918738049713192595E+01 1.9600000000E+00
bond_coeff 114  5.616634799235181674E+01 1.8600000000E+00
bond_coeff 115  1.673040152963671119E+02 1.2100000000E+00
bond_coeff 116  1.673040152963671119E+02 1.2800000000E+00
bond_coeff 117  1.434034416826003735E+02 1.7100000000E+00
bond_coeff 118  1.314531548757170185E+02 1.6000000000E+00
bond_coeff 119  4.541108986615678873E+02 1.2100000000E+00
bond_coeff 120  4.182600382409177797E+01 1.6100000000E+00
bond_coeff 121  1.314531548757170185E+02 1.9400000000E+00
bond_coeff 122  1.553537284894837569E+02 1.5900000000E+00
bond_coeff 123  1.434034416826003735E+02 2.1000000000E+00
bond_coeff 124  1.195028680688336493E+02 2.1200000000E+00
bond_coeff 125  5.736137667304015508E+01 2.1300000000E+00
bond_coeff 126  2.031548757170172053E+02 1.2600000000E+00
bond_coeff 127  1.195028680688336635E+03 1.1400000000E+00
bond_coeff 128  1.912045889101338503E+02 1.2300000000E+00
bond_coeff 129  7.887189292543021111E+02 1.3000000000E+00
bond_coeff 130  2.390057361376672986E+02 1.3100000000E+00
bond_coeff 131  5.975143403441682466E+01 2.0400000000E+00
bond_coeff 132  8.245697896749521760E+01 1.3400000000E+00
bond_coeff 133  6.214149139579350276E+02 9.3800000000E-01
bond_coeff 134  3.107074569789675138E+02 1.1600000000E+00
bond_coeff 135  3.465583173996176214E+01 2.0700000000E+00
bond_coeff 136  6.094646271510516300E+01 1.1600000000E+00
bond_coeff 137  9.321223709369024846E+01 2.1600000000E+00
bond_coeff 138  4.302103250478011631E+01 2.2300000000E+00
bond_coeff 139  2.390057361376673128E+01 2.0500000000E+00
bond_coeff 140  8.962715105162524196E+02 1.1900000000E+00
bond_coeff 141  7.289674952198853362E+02 1.4700000000E+00
bond_coeff 142  3.943594646271510555E+02 1.5700000000E+00
bond_coeff 143  1.195028680688336635E+03 1.1800000000E+00
bond_coeff 144  5.497131931166347840E+01 1.8700000000E+00
bond_coeff 145  1.063575525812619617E+03 1.1700000000E+00
bond_coeff 146  2.151051625239005887E+02 1.1300000000E+00
bond_coeff 147  5.975143403441682466E+01 2.0200000000E+00
bond_coeff 148  1.792543021032504669E+02 1.0700000000E+00
bond_coeff 149  2.509560229445506820E+02 1.1400000000E+00
bond_coeff 150  1.553537284894837569E+02 1.0600000000E+00
bond_coeff 151  5.377629063097514290E+02 1.4600000000E+00
bond_coeff 152  8.126195028680688210E+02 1.1700000000E+00
bond_coeff 153  9.201720841300191012E+01 2.1500000000E+00
bond_coeff 154  2.390057361376672986E+02 1.0400000000E+00
bond_coeff 155  6.094646271510516300E+01 1.4000000000E+00
bond_coeff 156  1.314531548757170185E+03 1.1100000000E+00
bond_coeff 157  4.660611854684512423E+02 1.5600000000E+00
bond_coeff 158  7.528680688336520461E+02 1.4900000000E+00
bond_coeff 159  5.019120458891013641E+02 1.5400000000E+00
bond_coeff 160  3.585086042065009337E+01 2.1700000000E+00
bond_coeff 161  3.585086042065009337E+01 2.2700000000E+00
bond_coeff 162  6.692160611854684475E+02 1.4500000000E+00
bond_coeff 163  7.648183556405354011E+02 1.2500000000E+00
bond_coeff 164  8.484703632887188860E+02 1.2700000000E+00
bond_coeff 165  5.616634799235181390E+02 1.1600000000E+00
bond_coeff 166  1.434034416826003735E+03 1.1400000000E+00
bond_coeff 167  5.019120458891013641E+02 1.1700000000E+00
bond_coeff 168  5.377629063097514290E+02 1.1900000000E+00
bond_coeff 169  9.201720841300191296E+02 1.1400000000E+00
bond_coeff 170  2.270554493307839437E+02 1.2400000000E+00
bond_coeff 171  1.434034416826003735E+03 1.1300000000E+00
bond_coeff 172  8.962715105162523344E+01 2.9100000000E+00
bond_coeff 173  5.736137667304015508E+01 2.2400000000E+00
bond_coeff 174  4.182600382409177655E+02 7.4300000000E-01
bond_coeff 175  2.390057361376672986E+02 1.2000000000E+00
bond_coeff 176  1.111376673040152951E+02 2.3300000000E+00
bond_coeff 177  9.679732313575526348E+01 2.4200000000E+00
bond_coeff 178  8.365200764818355594E+01 1.3200000000E+00
bond_coeff 179  1.159177820267686457E+03 1.2000000000E+00
bond_coeff 180  1.314531548757170185E+03 1.2000000000E+00
bond_coeff 181  4.302103250478011773E+02 1.5800000000E+00
bond_coeff 182  5.377629063097514717E+01 1.4700000000E+00
bond_coeff 183  1.553537284894837445E+00 2.7700000000E+00
bond_coeff 184  5.138623326959846693E+00 2.2500000000E+00
bond_coeff 185  1.003824091778202643E+02 2.1800000000E+00
bond_coeff 186  5.019120458891013214E+01 1.5200000000E+00
bond_coeff 187  9.321223709369024846E+01 2.1900000000E+00
bond_coeff 188  2.748565965583173920E+01 1.4800000000E+00
bond_coeff 189  1.912045889101338389E+03 1.0700000000E+00
bond_coeff 190  8.604206500956022907E+00 2.8000000000E+00
bond_coeff 191  8.723709369024857097E+01 2.5200000000E+00
bond_coeff 192  6.692160611854685026E-01 2.7900000000E+00
bond_coeff 193  8.126195028680688210E+02 1.1600000000E+00
bond_coeff 194  1.792543021032504846E+00 2.6800000000E+00
bond_coeff 195  4.063097514340344105E+02 1.5900000000E+00
bond_coeff 196  1.195028680688336493E+02 1.1800000000E+00
bond_coeff 197  3.465583173996176214E+01 2.5400000000E+00
bond_coeff 198  1.792543021032504839E+03 1.1000000000E+00
bond_coeff 199  8.245697896749521760E+02 1.2900000000E+00
bond_coeff 200  3.346080305927342380E+01 2.4400000000E+00
bond_coeff 201  1.075525812619502943E+02 2.4100000000E+00
bond_coeff 202  1.123326959847036335E+02 2.3600000000E+00
bond_coeff 203  2.031548757170171982E+01 1.4300000000E+00
bond_coeff 204  2.270554493307839206E+00 2.5700000000E+00
bond_coeff 205  1.912045889101338503E+01 2.4700000000E+00
bond_coeff 206  7.648183556405353523E-01 2.7100000000E+00
bond_coeff 207  1.553537284894837512E+03 1.1200000000E+00
bond_coeff 208  3.704588910133843171E+00 2.7500000000E+00
bond_coeff 209  5.019120458891013641E+02 1.1400000000E+00
bond_coeff 210  7.170172084130018719E-01 2.8600000000E+00
bond_coeff 211  1.051625239005736212E+01 2.6400000000E+00
bond_coeff 212  1.912045889101338389E+03 9.8500000000E-01
bond_coeff 213  1.912045889101338547E+00 2.6100000000E+00
bond_coeff 214  7.409177820267686343E+00 2.6200000000E+00
bond_coeff 215  5.975143403441682466E+01 2.4600000000E+00
bond_coeff 216  3.585086042065009693E+00 2.6600000000E+00
bond_coeff 217  1.314531548757170265E+00 2.7200000000E+00
bond_coeff 218  5.855640535372849342E+01 1.6300000000E+00
bond_coeff 219  5.736137667304014940E+02 1.1200000000E+00
bond_coeff 220  3.704588910133843171E+01 2.3200000000E+00
bond_coeff 221  1.673040152963671190E+01 1.4400000000E+00
bond_coeff 222  1.553537284894837512E+03 1.1600000000E+00
bond_coeff 223  7.170172084130019385E+00 2.6900000000E+00
bond_coeff 224  1.003824091778202643E+01 2.4900000000E+00
bond_coeff 225  3.226577437858508812E+00 2.9200000000E+00
bond_coeff 226  8.245697896749522027E-01 2.2900000000E+00
bond_coeff 227  9.799235181644359471E+00 2.4000000000E+00
bond_coeff 228  1.039674952198852864E+00 2.3700000000E+00
bond_coeff 229  1.553537284894837445E+00 2.9400000000E+00
bond_coeff 230  5.855640535372849342E+00 2.9500000000E+00
bond_coeff 231  1.673040152963671146E+00 2.9600000000E+00
bond_coeff 232  1.314531548757170119E-02 2.5600000000E+00
bond_coeff 233  5.258126195028681060E+00 2.5900000000E+00
bond_coeff 234  1.553537284894837533E+01 2.3800000000E+00
bond_coeff 235  8.365200764818355310E+02 1.1200000000E+00
bond_coeff 236  1.912045889101338547E+00 2.5000000000E+00
bond_coeff 237  2.390057361376673128E+00 2.3000000000E+00
bond_coeff 238  5.855640535372848490E+02 1.0400000000E+00
bond_coeff 239  3.346080305927342291E+00 2.9900000000E+00
bond_coeff 240  9.679732313575526437E-01 2.3400000000E+00
bond_coeff 241  1.075525812619502863E+00 2.9800000000E+00
bond_coeff 242  2.270554493307839206E+00 2.7400000000E+00
bond_coeff 243  1.063575525812619617E+03 1.1600000000E+00
bond_coeff 244  8.126195028680688210E+02 1.5000000000E+00
bond_coeff 245  1.314531548757170265E+00 2.8400000000E+00
bond_coeff 246  3.226577437858508812E-01 2.8200000000E+00
bond_coeff 247  9.082217973231357746E+02 1.2300000000E+00
bond_coeff 248  4.660611854684512423E+02 1.0500000000E+00
bond_coeff 249  3.346080305927342291E+00 2.8800000000E+00
bond_coeff 250  1.434034416826003735E+03 1.1800000000E+00
bond_coeff 251  1.673040152963671062E+03 1.1500000000E+00
bond_coeff 252  6.333652007648183258E+00 2.9000000000E+00
bond_coeff 253  1.027724665391969438E+03 1.2400000000E+00
bond_coeff 254  4.182600382409177655E+02 1.9000000000E+00
bond_coeff 255  2.270554493307839493E+03 1.0800000000E+00
bond_coeff 256  1.434034416826003735E+03 1.2100000000E+00
bond_coeff 257  7.648183556405354011E+02 9.7500000000E-01

# Dummy bond for extra excluded interactions
bond_coeff 258  0.000000000000000000E+00 0.0000000000E+00

#            angle_id     k_harmonic               theta0
angle_coeff 1    4.531159764110539356E+01 9.0000000000E+01
angle_coeff 2    5.009172539172424621E+01 9.0000000000E+01
angle_coeff 3    4.777119165305969517E+01 9.6000000000E+01
angle_coeff 4    5.495507667712937661E+01 1.0000000000E+02
angle_coeff 5    4.755587910082016379E+01 1.0300000000E+02
angle_coeff 6    5.503449877865421058E+01 1.0400000000E+02
angle_coeff 7    5.017089249514589966E+01 1.0800000000E+02
angle_coeff 8    3.017313270271808179E+01 1.0950000000E+02
angle_coeff 9    3.388969514161131968E+01 1.0950000000E+02
angle_coeff 10   4.026093651823891406E+01 1.0950000000E+02
angle_coeff 11   4.503936558918574207E+01 1.0950000000E+02
angle_coeff 12   4.769404884227261476E+01 1.0950000000E+02
angle_coeff 13   5.512715332021083015E+01 1.0950000000E+02
angle_coeff 14   4.763495597414375737E+01 1.0960000000E+02
angle_coeff 15   5.511390518798809524E+01 1.1100000000E+02
angle_coeff 16   5.509974690868934033E+01 1.1300000000E+02
angle_coeff 17   4.824003116558784221E+00 1.1500000000E+02
angle_coeff 18   4.506986336232746027E+01 1.1500000000E+02
angle_coeff 19   5.979372060785910747E+01 1.1500000000E+02
angle_coeff 20   4.480849815265150937E+01 1.1600000000E+02
angle_coeff 21   5.977192415460783081E+01 1.1600000000E+02
angle_coeff 22   6.016393470016820544E+01 1.1700000000E+02
angle_coeff 23   3.487998772914675527E+01 1.2000000000E+02
angle_coeff 24   3.980949179939617721E+01 1.2000000000E+02
angle_coeff 25   4.518712718236594128E+01 1.2000000000E+02
angle_coeff 26   4.742781120730183630E+01 1.2000000000E+02
angle_coeff 27   5.011662889878671479E+01 1.2000000000E+02
angle_coeff 28   5.997562448553279069E+01 1.2000000000E+02
angle_coeff 29   6.983461614923112393E+01 1.2000000000E+02
angle_coeff 30   6.007257868741400131E+01 1.2100000000E+02
angle_coeff 31   6.009101308875088421E+01 1.2200000000E+02
angle_coeff 32   3.481463446143215634E+01 1.2300000000E+02
angle_coeff 33   5.989285210123679093E+01 1.2400000000E+02
angle_coeff 34   3.000747691187498489E+01 1.2500000000E+02
angle_coeff 35   6.007786695576940872E+01 1.2500000000E+02
angle_coeff 36   4.491393398374964363E+01 1.2600000000E+02
angle_coeff 37   4.999795670460907360E+01 1.2600000000E+02
angle_coeff 38   6.016599430023244111E+01 1.2600000000E+02
angle_coeff 39   5.011888465123802661E+01 1.3200000000E+02
angle_coeff 40   4.751869253127933490E+01 1.5500000000E+02
angle_coeff 41   2.849707999314575346E+01 1.8000000000E+02
angle_coeff 42   4.599505140337510767E+01 1.0950000000E+02
angle_coeff 43   5.247673834306662144E+01 1.0757000000E+02
angle_coeff 44   6.547197129315762254E+01 1.1130000000E+02
angle_coeff 45   5.501891643302533197E+01 9.7400000000E+01
angle_coeff 46   5.502468723625295155E+01 1.0675000000E+02
angle_coeff 47   4.750189404085062250E+01 1.0853000000E+02
angle_coeff 48   6.553349252783840484E+01 1.0950000000E+02
angle_coeff 49   5.495659489660530284E+01 1.0760000000E+02
angle_coeff 50   4.748167072974365510E+01 1.0950000000E+02
angle_coeff 51   5.499310277888685761E+01 1.1030000000E+02
angle_coeff 52   5.502340047659377120E+01 1.1140000000E+02
angle_coeff 53   6.004396397718814882E+01 1.1720000000E+02
angle_coeff 54   6.000230905626986555E+01 1.2140000000E+02
angle_coeff 55   4.824003116558784399E+01 1.8000000000E+02
angle_coeff 56   1.804601961048520877E+02 1.0900000000E+02
angle_coeff 57   1.922293393290815686E+02 1.0600000000E+02
angle_coeff 58   1.451527664321636166E+02 1.2600000000E+02
angle_coeff 59   1.451527664321636166E+02 9.6200000000E+01
angle_coeff 60   1.569219096563931259E+02 1.1400000000E+02
angle_coeff 61   2.039984825533110495E+02 1.1900000000E+02
angle_coeff 62   2.393059122259994922E+02 1.3000000000E+02
angle_coeff 63   2.981516283471469251E+02 1.0700000000E+02
angle_coeff 64   1.569219096563931259E+02 1.3400000000E+02
angle_coeff 65   2.393059122259994922E+02 1.0100000000E+02
angle_coeff 66   2.863824851229174442E+02 1.1300000000E+02
angle_coeff 67   3.687664876925238104E+02 1.3400000000E+02
angle_coeff 68   3.569973444682943295E+02 1.1900000000E+02
angle_coeff 69   3.334590580198353678E+02 1.2600000000E+02
angle_coeff 70   2.510750554502289731E+02 8.9600000000E+01
angle_coeff 71   3.805356309167532913E+02 1.1400000000E+02
angle_coeff 72   2.863824851229174442E+02 1.3500000000E+02
angle_coeff 73   1.451527664321636166E+02 8.8300000000E+01
angle_coeff 74   1.333836232079341642E+02 6.0000000000E+01
angle_coeff 75   3.805356309167532913E+02 1.7900000000E+02
angle_coeff 76   2.510750554502289731E+02 1.8000000000E+02
angle_coeff 77   4.707657289691792926E+02 1.7800000000E+02
angle_coeff 78   4.707657289691793068E+01 5.9900000000E+01
angle_coeff 79   4.707657289691793068E+01 6.0300000000E+01
angle_coeff 80   2.510750554502289731E+02 1.2400000000E+02
angle_coeff 81   7.061485934537689673E+02 1.1800000000E+02
angle_coeff 82   1.176914322422948231E+02 1.4400000000E+02
angle_coeff 83   6.276876386255725038E+02 1.2300000000E+02
angle_coeff 84   4.707657289691792926E+02 1.1800000000E+02
angle_coeff 85   3.334590580198353678E+02 9.4800000000E+01
angle_coeff 86   9.023009805242604386E+01 1.7500000000E+02
angle_coeff 87   1.569219096563931259E+02 8.2800000000E+01
angle_coeff 88   1.176914322422948231E+02 7.7600000000E+01
angle_coeff 89   2.393059122259994922E+02 1.4500000000E+02
angle_coeff 90   2.510750554502289731E+02 5.0800000000E+01
angle_coeff 91   3.805356309167532913E+02 1.0400000000E+02
angle_coeff 92   2.628441986744584824E+02 8.4400000000E+01
angle_coeff 93   2.157676257775405304E+02 6.3300000000E+01
angle_coeff 94   2.157676257775405304E+02 6.1000000000E+01
angle_coeff 95   2.981516283471469251E+02 1.7300000000E+02
angle_coeff 96   1.922293393290815686E+02 1.7300000000E+02
angle_coeff 97   8.238400256960638046E+01 5.0900000000E+01
angle_coeff 98   4.315352515550810608E+02 1.2700000000E+02
angle_coeff 99   6.276876386255724327E+01 6.7800000000E+01
angle_coeff 100  1.569219096563931259E+02 1.8000000000E+02
angle_coeff 101  5.884571612114741583E+02 1.1800000000E+02
angle_coeff 102  3.017313270271808179E+01 1.1000000000E+02
angle_coeff 103  2.275367690017699829E+02 9.4800000000E+01
angle_coeff 104  4.315352515550810608E+02 1.7300000000E+02
angle_coeff 105  3.452282012440647918E+01 7.8500000000E+01
angle_coeff 106  7.061485934537689957E+01 1.3800000000E+02
angle_coeff 107  7.061485934537689957E+01 1.6800000000E+02
angle_coeff 108  1.569219096563931259E+02 1.6700000000E+02
angle_coeff 109  1.804601961048520664E+01 1.4900000000E+02
angle_coeff 110  3.334590580198353678E+02 1.4400000000E+02
angle_coeff 111  3.569973444682943295E+02 1.4800000000E+02
angle_coeff 112  3.216899147956058300E+02 1.4400000000E+02
angle_coeff 113  3.569973444682943295E+02 1.4800000000E+02
angle_coeff 114  3.216899147956058300E+02 1.4700000000E+02
angle_coeff 115  3.334590580198353678E+02 1.4400000000E+02
angle_coeff 116  5.099962063832776039E+03 6.0800000000E+01
angle_coeff 117  1.451527664321636394E+03 6.8000000000E+01
angle_coeff 118  2.981516283471469251E+02 1.6100000000E+02
angle_coeff 119  1.569219096563931259E+02 1.5500000000E+02
angle_coeff 120  3.099207715713764060E+02 1.5400000000E+02
angle_coeff 121  2.157676257775405304E+02 7.5300000000E+01
angle_coeff 122  3.099207715713764060E+02 6.4700000000E+01
angle_coeff 123  5.492266837973758129E+02 1.7300000000E+02
angle_coeff 124  3.334590580198353564E+03 4.5800000000E+01
angle_coeff 125  8.630705031101621216E+02 1.2300000000E+02
angle_coeff 126  5.492266837973758129E+02 1.2300000000E+02
angle_coeff 127  4.707657289691792926E+02 1.6600000000E+02
angle_coeff 128  3.805356309167532913E+02 1.6600000000E+02
angle_coeff 129  2.039984825533110495E+02 1.3900000000E+02
angle_coeff 130  6.669181160396708208E+01 1.6100000000E+02
angle_coeff 131  7.453790708678672772E+00 4.4900000000E+01
angle_coeff 132  2.510750554502289944E+01 8.4800000000E+01
angle_coeff 133  1.922293393290815686E+02 1.6100000000E+02
angle_coeff 134  3.334590580198353678E+02 7.0400000000E+01
angle_coeff 135  6.276876386255725038E+02 1.7300000000E+02
angle_coeff 136  1.922293393290815500E+00 5.1600000000E+01
angle_coeff 137  2.157676257775405304E+01 7.3300000000E+01
angle_coeff 138  7.453790708678672772E+00 1.7400000000E+02
angle_coeff 139  4.707657289691792926E+02 1.3200000000E+02
angle_coeff 140  1.451527664321636166E+02 6.9900000000E+01
angle_coeff 141  1.569219096563931082E+01 1.4400000000E+02
angle_coeff 142  1.922293393290815629E+03 9.7900000000E+01
angle_coeff 143  3.923047741409827722E+02 1.5500000000E+02
angle_coeff 144  5.884571612114741583E+02 1.0400000000E+02
angle_coeff 145  1.176914322422948231E+02 1.4900000000E+02
angle_coeff 146  5.099962063832776380E+02 1.5700000000E+02
angle_coeff 147  2.863824851229174442E+02 1.6600000000E+02
angle_coeff 148  3.334590580198353678E+02 8.9800000000E+01
angle_coeff 149  3.923047741409827722E+02 7.9100000000E+01
angle_coeff 150  6.669181160396707128E+03 4.5200000000E+01
angle_coeff 151  4.707657289691792926E+02 1.0100000000E+02
angle_coeff 152  7.453790708678671990E+02 1.2500000000E+02
angle_coeff 153  1.686910528806225784E+02 4.9600000000E+01
angle_coeff 154  5.099962063832776380E+02 1.1200000000E+02
angle_coeff 155  4.707657289691792926E+02 1.0700000000E+02
angle_coeff 156  2.981516283471469251E+02 5.9600000000E+01
angle_coeff 157  2.393059122259994922E+02 7.0200000000E+01
angle_coeff 158  3.923047741409827722E+03 1.0000000000E+02
angle_coeff 159  3.923047741409827722E+03 1.0000000000E+02
angle_coeff 160  1.059222890180653621E+03 4.6300000000E+01
angle_coeff 161  1.176914322422948317E+03 4.6300000000E+01
angle_coeff 162  4.315352515550810608E+02 9.4100000000E+01
angle_coeff 163  5.099962063832776380E+02 6.9600000000E+01
angle_coeff 164  4.707657289691792926E+02 1.3900000000E+02
angle_coeff 165  6.669181160396707355E+02 1.3200000000E+02

#               dihedral_id     k                         n phi0
dihedral_coeff 1    6.381453154875716960E-01 -1  1
dihedral_coeff 2    8.150095602294454844E-01 -1  1
dihedral_coeff 3    1.187858508604206387E+00 -1  1
dihedral_coeff 4    1.400573613766730396E+00 -1  1
dihedral_coeff 5    2.234703632887188984E+00 -1  1
dihedral_coeff 6    2.258604206500955947E+00 -1  1
dihedral_coeff 7    6.668260038240917398E-01  1  1
dihedral_coeff 8    1.278680688336519822E+00  1  1
dihedral_coeff 9    3.656787762906309469E-01 -1  2
dihedral_coeff 10   1.400573613766730396E+00 -1  2
dihedral_coeff 11   1.699330783938814537E+00 -1  2
dihedral_coeff 12   3.991395793499043609E+00 -1  2
dihedral_coeff 13   5.736137667304014975E+00 -1  2
dihedral_coeff 14   8.006692160611853737E+00 -1  2
dihedral_coeff 15   9.990439770554491616E+00 -1  2
dihedral_coeff 16   0.000000000000000000E+00  1  2
dihedral_coeff 17   9.990439770554492005E-02  1  2
dihedral_coeff 18   4.995219885277246141E-01  1  2
dihedral_coeff 19   7.504780114722753304E-01  1  2
dihedral_coeff 20   1.216539196940726431E+00  1  2
dihedral_coeff 21   3.991395793499043609E+00  1  2
dihedral_coeff 22   2.509560229445506607E-01  1  3
dihedral_coeff 23   3.011472275334607929E-01  1  3
dihedral_coeff 24   3.107074569789675111E-01  1  3
dihedral_coeff 25   6.046845124282982376E-01  1  3
dihedral_coeff 26   7.002868068833651982E-01  1  3
dihedral_coeff 27   7.624282982791585894E-01  1  3
dihedral_coeff 28   8.723709369024855720E-01  1  3
dihedral_coeff 29   9.010516252390057268E-01  1  3
dihedral_coeff 30   9.321223709369024224E-01  1  3
dihedral_coeff 31   9.990439770554492283E-01  1  3
dihedral_coeff 32   1.120936902485659692E+00  1  3
dihedral_coeff 33   1.300191204588910132E+00  1  3
dihedral_coeff 34   1.414913957934990307E+00  1  3
dihedral_coeff 35   1.837954110898661453E+00  1  3
dihedral_coeff 36   2.060229445506692070E+00  1  3
dihedral_coeff 37   2.270554493307839206E+00  1  3
dihedral_coeff 38   0.000000000000000000E+00  1  4
dihedral_coeff 39   2.390057361376672906E-01 -1  6
dihedral_coeff 40   2.390057361376672906E-01  1  6
dihedral_coeff 41   9.010516252390057268E-01  1  6
dihedral_coeff 42   8.365200764818354617E-01 -1  2
dihedral_coeff 43   6.692160611854683916E-01  1  3
dihedral_coeff 44   1.673040152963670979E-01 -1  6
dihedral_coeff 45   9.560229445506691903E-02  1  6
dihedral_coeff 46   2.390057361376672906E-01 -1  3

# Dummy dihedral for 1-4 interactions
dihedral_coeff 47 0.0 1 1

#               improper_id     k                        xi0
improper_coeff 1    2.000754348119011894E+01 0.0000000000E+00
improper_coeff 2    4.001508696238023788E+01 3.5264390000E+01
improper_coeff 3    8.003017392476047576E+01 0.0000000000E+00
improper_coeff 4    2.000754348119011894E+01 1.8000000000E+02
improper_coeff 5    4.001508696238023788E+01 -3.5264390000E+01

# ------------------------------- Run Section -------------------------------


variable mytemp equal temp
variable myvol equal vol
variable mypress equal press

fix myat1 all ave/time 10 10 1000 v_mytemp file temperature_aftercooling.dat
fix myat2 all ave/time 10 10 1000 v_myvol file volume_aftercooling.dat
fix myat3 all ave/time 10 10 1000 v_mypress file pressure_aftercooling.dat


timestep        0.5 # 0.5 fs
fix fxnpt all npt temp 300.0 300.0 50.0 iso 1 1 500.0
thermo 2500
run             2000000 # 1 ns =
PPPM initialization ...
  using 12-bit tables for long-range coulomb (src/kspace.cpp:342)
  G vector (1/distance) = 0.19323977
  grid = 15 15 15
  stencil order = 5
  estimated absolute RMS force accuracy = 0.028187469
  estimated relative force accuracy = 8.4885726e-05
  using double precision FFTW3
  3d grid and FFT values/proc = 2197 512
Generated 0 of 2346 mixed pair_coeff terms from geometric mixing rule
Neighbor list info ...
  update: every = 1 steps, delay = 0 steps, check = yes
  max neighbors/atom: 2000, page size: 100000
  master list distance cutoff = 14
  ghost atom cutoff = 14
  binsize = 7, bins = 8 8 8
  1 neighbor lists, perpetual/occasional/extra = 1 0 0
  (1) pair lj/cut/coul/long, perpetual
      attributes: half, newton on
      pair build: half/bin/newton
      stencil: half/bin/3d
      bin: standard
Per MPI rank memory allocation (min/avg/max) = 17.15 | 17.21 | 17.54 Mbytes
   Step          Temp          E_pair         E_mol          TotEng         Press          Volume    
         0   301.04989     -53635.272      9459.3113     -33408.388     -87.433911      123940.66    
      2500   297.66311     -53628.411      9566.9843     -33414.988      632.24696      123249.57    
      5000   296.17192     -53665.548      9599.2257     -33473.219     -68.861867      123776.57    
      7500   299.85696     -53694.72       9572.1003     -33397.714      318.1442       123490.06    
     10000   300.28738     -53643.371      9580.6164     -33322.455      495.30167      123356.95    
     12500   296.92379     -53613.393      9704.5123     -33288.885      253.31916      123913.44    
     15000   303.76518     -53650.728      9545.8977     -33240.14       809.43145      123750.65    
     17500   301.62904     -53570.316      9594.7195     -33187.309     -197.26497      124265.96    
     20000   297.84037     -53588.691      9562.2329     -33373.68      -940.17068      124302.02    
     22500   300.75207     -53556.091      9471.4142     -33327.755      554.9743       124059.32    
     25000   302.08981     -53601.673      9575.5829     -33221.322     -226.16315      123423.04    
     27500   299.848       -53609.951      9553.8011     -33331.565      182.75889      123470.94    
     30000   299.12042     -53589.403      9362.8971     -33527.943     -562.66194      123871.61    
     32500   297.11337     -53605.983      9483.934      -33495.272     -1104.9563      124298.55    
     35000   298.45101     -53553.947      9399.9925     -33479.335      674.17733      123929.17    
     37500   298.60713     -53579.345      9647.2514     -33251.89       177.29291      123818.44    
     40000   296.28191     -53534.107      9668.0447     -33269.024     -840.58606      124069.45    
     42500   297.34792     -53533.4        9537.3018     -33360.933     -110.03145      124306.89    
     45000   301.46154     -53567.521      9491.2941     -33293.931      175.4952       124080.99    
     47500   298.9268      -53617.338      9498.6253     -33427.075     -28.062606      123944.32    
     50000   301.99389     -53567.762      9542.5751     -33223.85       58.484464      123953.3     
     52500   302.29554     -53647.578      9566.8228     -33268.629     -410.67225      123962.96    
     55000   297.10397     -53565.895      9560.5025     -33378.952      764.60378      123506.04    
     57500   298.45513     -53560.045      9459.7885     -33425.49      -602.4197       123846.04    
     60000   300.20273     -53517.564      9615.408      -33164.883     -56.805498      124171.84    
     62500   304.77969     -53515.033      9639.9966     -32974.06      -183.10429      124210.18    
     65000   301.66482     -53566.368      9717.1568     -33059.644      78.690492      123994.06    
     67500   301.73594     -53581.799      9519.3903     -33270.298     -468.7848       123656.44    
     70000   303.45991     -53591.573      9631.3716     -33106.43       1295.4441      123497.96    
     72500   299.53915     -53564.935      9619.4886     -33231.907     -376.4921       124014.06    
     75000   305.60725     -53538.921      9518.4117     -33089.935     -1532.6134      124277.73    
     77500   297.3766      -53660.057      9483.7191     -33540.147      205.75396      124150.84    
     80000   300.64922     -53581.243      9512.0589     -33315.941      84.042493      124229       
     82500   297.26305     -53614.189      9566.8335     -33415.225      580.42402      124025.73    
     85000   296.23186     -53570.195      9468.2513     -33506.696     -524.44622      124269.9     
     87500   303.41906     -53621.516      9411.9958     -33357.21      -33.887424      124100.33    
     90000   299.2794      -53741.388      9483.809      -33553.331     -302.2074       123774.37    
     92500   298.12837     -53610.404      9458.5689     -33488.755      235.87211      123736.6     
     95000   300.99282     -53660.724      9546.7476     -33348.444      202.61184      123418.22    
     97500   302.81608     -53614.153      9519.7819     -33263.627      188.46353      123756.67    
    100000   295.88272     -53634.549      9513.1002     -33538.689      446.08279      123637.19    
    102500   294.84052     -53703.461      9405.5482     -33752.429      703.03533      123633.52    
    105000   300.74807     -53653.193      9578.0381     -33318.377      152.16686      123573.85    
    107500   302.75956     -53595.272      9539.455      -33227.095     -450.65178      124232.21    
    110000   305.75463     -53578.084      9391.6213     -33250.616     -1617.2862      123893.91    
    112500   300.34012     -53652.905      9530.9167     -33379.801      672.38457      124073.62    
    115000   297.35924     -53635.413      9494.7368     -33505.106      711.20173      123868.2     
    117500   299.00532     -53586.746      9479.0056     -33413.295     -95.567192      123707.62    
    120000   298.53921     -53632.671      9493.9528     -33460.944     -1103.8412      123614       
    122500   301.07132     -53590.425      9481.6592     -33340.426      151.03337      124247.96    
    125000   300.74787     -53640.562      9580.2164     -33303.575     -444.2756       124121.78    
    127500   302.88809     -53662.929      9702.9121     -33126.697      460.55715      123982.01    
    130000   301.20359     -53578.531      9612.6137     -33192.847     -214.12218      124001.65    
    132500   301.0462      -53712.747      9373.3842     -33571.922     -649.94036      123697.03    
    135000   297.1578      -53685.717      9530.0096     -33527.342      682.5451       123210.75    
    137500   298.54516     -53634.302      9543.5908     -33412.725      224.61579      123899.27    
    140000   300.96088     -53590.029      9466.4676     -33359.173     -1193.6381      124113.54    
    142500   297.72278     -53576.989      9462.999      -33465.417      157.75646      123972.97    
    145000   302.29725     -53654.971      9554.2776     -33288.506      723.9803       123647.18    
    147500   300.27305     -53577.345      9486.424      -33351.133     -544.50454      123560.89    
    150000   299.70543     -53529.466      9591.0423     -33218.938     -463.14151      124314.39    
    152500   299.80376     -53618.685      9528.2774     -33367.404     -258.59646      123635.86    
    155000   299.10545     -53603.828      9490.6435     -33415.158      544.9062       123505.38    
    157500   300.62275     -53538.19       9471.7274     -33314.167     -492.19595      124157.09    
    160000   302.69509     -53579.347      9529.7577     -33223.173     -168.58831      123883.41    
    162500   298.7541      -53613.234      9537.6493     -33390.124     -1054.8104      123975.15    
    165000   298.80456     -53559.03       9523.9068     -33347.859     -4.0782699      123887.88    
    167500   297.56436     -53543.818      9463.4228     -33437.488      41.77753       123718.81    
    170000   301.4184      -53627.675      9647.3006     -33199.621     -212.24652      123675.8     
    172500   298.70708     -53599.642      9505.6028     -33410.26      -371.43591      124001.14    
    175000   299.7814      -53583.518      9476.7071     -33384.608     -560.82432      123732.51    
    177500   301.52797     -53607.875      9570.8102     -33252.392     -188.87609      123887.09    
    180000   303.19691     -53602.368      9586.2213     -33171.781     -613.10076      124098.41    
    182500   305.73322     -53673.315      9491.1012     -33247.133     -354.74003      123816.65    
    185000   303.95224     -53533.109      9551.2726     -33110.456     -342.69456      124132.44    
    187500   300.94267     -53516.259      9417.338      -33335.182     -501.32069      124302.93    
    190000   300.5479      -53655.475      9464.4951     -33441.362      605.11442      123665.07    
    192500   301.04245     -53599.811      9502.8309     -33329.673      324.91067      124084.57    
    195000   298.76629     -53583.29       9464.2852     -33433.109     -627.94434      123923.44    
    197500   299.35887     -53612.935      9652.9692     -33252.875      161.69408      123346.05    
    200000   298.45032     -53643.452      9357.4102     -33611.447      348.66108      124010.8     
    202500   297.75967     -53607.24       9296.869      -33660.478     -39.102181      124015.97    
    205000   295.62616     -53613.168      9469.2504     -33570.333     -419.12717      123933.79    
    207500   303.96754     -53690.993      9682.3758     -33136.69       1032.9626      123591.15    
    210000   302.40782     -53664.647      9457.617      -33390.888     -8.9444441      123519.27    
    212500   299.85563     -53634.708      9528.1733     -33381.677      643.78335      123996.82    
    215000   299.82201     -53675.418      9393.8205     -33557.942     -419.73284      123926.23    
    217500   297.8067      -53592.408      9410.3706     -33530.462     -318.61541      123717.4     
    220000   300.28384     -53624.457      9605.0676     -33279.216     -194.99327      123946.99    
    222500   296.49532     -53655.275      9552.9076     -33497.697      895.29147      123833.23    
    225000   303.7756      -53674.975      9380.9293     -33428.983     -19.240108      123583.52    
    227500   300.57338     -53641.687      9401.5377     -33489.62      -40.03109       123637.79    
    230000   301.25574     -53567.334      9463.5439     -33328.854      406.0351       123795.3     
    232500   300.42817     -53597.633      9425.4801     -33426.817     -292.3729       124052.48    
    235000   296.81777     -53619.747      9587.6118     -33415.932     -1373.7258      123975.03    
    237500   299.52318     -53644.075      9510.4216     -33420.686      287.82932      123851.39    
    240000   298.38965     -53552.509      9535.773      -33344.311      640.87085      124067.49    
    242500   296.08255     -53579.9        9479.0107     -33510.982      575.43655      123846.78    
    245000   302.41055     -53626.778      9570.1717     -33240.366      181.36147      123894.07    
    247500   298.78414     -53596.295      9546.1496     -33363.61      -492.22163      123694.35    
    250000   297.8962      -53588.139      9541.2473     -33392.116      312.0934       123878.59    
    252500   302.83683     -53654.874      9483.217      -33340.171     -282.66859      123930.38    
    255000   299.48375     -53648.611      9411.2343     -33525.819      547.17227      123472.98    
    257500   302.45386     -53675.759      9547.2556     -33310.715      253.52161      123649.75    
    260000   298.36865     -53555.805      9380.5296     -33503.602      617.96777      124033.15    
    262500   304.33229     -53587.452      9451.5958     -33250.882      35.619306      123663.73    
    265000   300.37988     -53669.811      9550.7992     -33375.403      963.35817      123634.59    
    267500   297.68672     -53755.821      9549.8378     -33558.7       -854.74894      123221.22    
    270000   299.06084     -53645.663      9492.2996     -33456.932     -507.40042      123874.63    
    272500   297.88672     -53691.804      9549.3233     -33488.044     -374.52343      123605.45    
    275000   298.94059     -53552.755      9504.3228     -33356.302      150.14749      123888.56    
    277500   299.40615     -53636.036      9515.6148     -33411.64      -1457.2964      124199.2     
    280000   298.68072     -53624.878      9671.042      -33271.001     -1255.4895      123926.31    
    282500   299.38569     -53624.476      9480.5883     -33435.838     -1259.3081      124364.48    
    285000   299.46588     -53676.638      9602.462      -33363.257      262.48337      123484.02    
    287500   298.07839     -53612.598      9450.8468     -33500.459      446.0885       123967.7     
    290000   300.10292     -53642.02       9387.4251     -33520.892     -938.88331      123366.48    
    292500   297.12138     -53658.904      9529.8392     -33502.001     -260.6585       123745.92    
    295000   300.83493     -53652.529      9537.224      -33355.42       413.98505      123887.79    
    297500   296.46213     -53566.009      9498.2337     -33464.291     -520.09101      123977.74    
    300000   298.25072     -53562.36       9518.1747     -33376.729      1020.9703      123587.73    
    302500   296.42501     -53597.972      9512.7187     -33483.097      266.17734      124012.34    
    305000   302.32513     -53582.93       9485.3388     -33284.407     -224.7421       124428.39    
    307500   299.57925     -53592.89       9691.9829     -33185.934     -150.69895      123795.31    
    310000   299.23831     -53640.259      9543.2209     -33394.259      741.39318      123505.14    
    312500   298.22946     -53684.495      9548.258      -33469.541      246.64344      123416.56    
    315000   302.71627     -53678.574      9503.3662     -33348.033      861.46894      123365.82    
    317500   300.15007     -53695.659      9586.6673     -33373.602      660.81175      123752.65    
    320000   305.14779     -53612.924      9509.0383     -33189.744     -645.1709       124051.54    
    322500   302.32276     -53626.79       9468.2206     -33345.47      -187.43213      123736.04    
    325000   301.27375     -53584.935      9451.3226     -33358.032     -702.0433       123778.83    
    327500   296.99344     -53665.114      9478.1038     -33564.523     -232.92897      123932.89    
    330000   301.59559     -53673.093      9385.9853     -33500.017     -674.048        123511.48    
    332500   302.78607     -53674.557      9455.8993     -33388.987      690.00773      123411.24    
    335000   297.44569     -53628.881      9473.3213     -33516.897      1040.9198      123654.89    
    337500   299.24529     -53605.435      9414.2863     -33488.12      -674.87215      124314.42    
    340000   300.26538     -53678.627      9491.1055     -33448.008     -572.74123      123475.19    
    342500   299.94913     -53670.683      9385.9848     -33556.496      385.54993      123461.74    
    345000   300.44245     -53619.875      9570.1576     -33303.871     -1043.6594      123919.84    
    347500   298.52667     -53618.462      9389.1563     -33551.98       318.44615      123803.84    
    350000   298.28242     -53674.044      9501.1295     -33504.324     -469.71468      123487.31    
    352500   299.59333     -53619.949      9587.4736     -33316.998     -229.96515      123605.05    
    355000   296.03257     -53641.068      9326.5768     -33726.371     -62.50756       123548.81    
    357500   300.38699     -53665.034      9492.3653     -33428.805     -663.55069      123441.75    
    360000   303.94245     -53616.148      9282.2438     -33462.873     -479.68708      124167.11    
    362500   300.00542     -53640.984      9489.5797     -33421.188     -605.52857      123792.54    
    365000   301.37761     -53657.589      9329.0394     -33549.255     -1315.6445      123748.06    
    367500   294.67411     -53701.471      9370.1853     -33791.753     -635.60556      123573.5     
    370000   296.46653     -53713.734      9529.8831     -33580.209     -432.4108       123492.11    
    372500   300.94313     -53656.068      9520.703      -33371.611      626.60108      123540.92    
    375000   300.6692      -53658.433      9577.2652     -33327.211      175.99156      123678.04    
    377500   299.27626     -53614.76       9480.8645     -33429.759     -450.02221      123821.26    
    380000   296.98947     -53633.795      9538.5582     -33472.892      119.82915      123996.64    
    382500   306.86695     -53530.222      9501.1403     -33053.451     -227.65023      123972.29    
    385000   301.82978     -53580.787      9502.2518     -33283.068     -449.68334      124418.44    
    387500   299.5528      -53498.812      9419.9993     -33364.786      713.31164      123827.89    
    390000   303.10932     -53551.337      9502.1798     -33207.925      775.01153      124230.94    
    392500   300.37666     -53579.768      9383.2298     -33453.044     -838.2536       124436.15    
    395000   303.80718     -53599.784      9471.3722     -33262.219      265.39217      123863.01    
    397500   301.67017     -53570.995      9468.9234     -33312.313     -439.75999      123998.88    
    400000   299.15942     -53574.511      9584.3782     -33290.176     -567.96286      124454.26    
    402500   298.87243     -53653.734      9441.9165     -33522.125     -364.38938      124217.91    
    405000   300.61516     -53673.222      9479.5495     -33441.648      466.19052      123726.3     
    407500   301.98109     -53646.506      9487.8368     -33357.79       620.66069      123892.83    
    410000   303.44918     -53619.756      9483.9161     -33282.452      320.66863      123932.97    
    412500   301.79609     -53568.527      9513.9387     -33260.326     -112.23265      123677.81    
    415000   299.75357     -53598.934      9538.6995     -33339.026     -1.051901       123978.84    
    417500   297.78889     -53614.701      9405.6103     -33558.153     -1189.9606      124257.09    
    420000   297.93783     -53574.915      9549.6112     -33369.039     -654.21542      124031.74    
    422500   297.66121     -53609.685      9499.4751     -33463.839      126.58502      124221.99    
    425000   302.10657     -53584.945      9497.0708     -33282.507     -662.3282       124344.4     
    427500   297.38748     -53660.436      9481.7293     -33542.126     -229.22657      123979.05    
    430000   296.57702     -53616.605      9611.0307     -33397.981      118.04625      123638.45    
    432500   300.2445      -53563.538      9435.5114     -33389.259      772.7322       124562.54    
    435000   293.44426     -53578.606      9439.8369     -33643.225      524.21684      123838.04    
    437500   300.97215     -53628.838      9545.8044     -33318.241     -917.20278      123936.1     
    440000   299.93115     -53574.674      9470.5798     -33376.535     -703.4544       124167.04    
    442500   303.86148     -53512.474      9519.8739     -33124.465     -882.36488      124013.36    
    445000   304.10091     -53623.097      9571.6386     -33174.76       117.55658      123576.44    
    447500   296.98321     -53615.678      9474.178      -33519.378     -414.25666      123493.71    
    450000   301.74078     -53627.4        9438.0803     -33397.036      236.51445      123587.51    
    452500   301.90469     -53673.336      9406.7037     -33468.486     -384.49579      123755.53    
    455000   299.14152     -53601.025      9530.2683     -33371.44       300.22822      123843.65    
    457500   296.48795     -53561.177      9487.7333     -33469.036     -230.09947      124148.97    
    460000   301.23074     -53606.145      9499.2777     -33332.826     -184.6011       124114.39    
    462500   296.41343     -53624.363      9479.6802     -33542.941     -442.78558      123514.29    
    465000   299.27236     -53611.815      9426.465      -33481.353      35.321928      124036.39    
    467500   301.45157     -53623.582      9564.3947     -33277.248      375.49804      123394.88    
    470000   296.96493     -53596.493      9573.0082     -33402.018     -1238.6655      123924.89    
    472500   300.07454     -53629.237      9594.0197     -33302.529     -288.04786      123676.2     
    475000   298.63874     -53633.813      9567.1639     -33385.315     -158.74045      123929.45    
    477500   302.74249     -53645.588      9457.0602     -33360.416      770.03623      123382.77    
    480000   298.21489     -53652.541      9577.1858     -33409.181     -140.82157      123378.82    
    482500   301.46261     -53578.729      9567.2067     -33229.187      158.75627      123706.36    
    485000   302.12956     -53677.226      9573.6514     -33297.385     -457.25763      124084.38    
    487500   300.02582     -53632.907      9544.2757     -33357.686      354.74032      123382.81    
    490000   298.01881     -53523.597      9474.4496     -33389.986     -64.965822      124027.94    
    492500   302.24331     -53738.181      9478.8009     -33449.122      696.32861      123244.3     
    495000   301.22833     -53614.534      9536.4841     -33304.095      8.1431638      123656.45    
    497500   300.19376     -53670.215      9591.1573     -33342.106     -417.1423       123495.27    
    500000   298.13423     -53626.379      9494.6633     -33468.426      100.60654      123577.95    
    502500   298.73203     -53562.663      9572.4355     -33305.557     -89.470186      123822.89    
    505000   299.87421     -53698.498      9511.5371     -33461.438     -992.83627      123340.56    
    507500   303.8738      -53642.962      9703.5264     -33070.861      546.16138      123482.08    
    510000   295.85369     -53734.381      9591.6082     -33561.051      374.60912      123057.04    
    512500   300.36969     -53657.381      9516.3721     -33397.765     -186.67005      123867.73    
    515000   301.07802     -53673.578      9419.0512     -33485.947     -147.44151      123979.16    
    517500   300.40733     -53742.013      9565.5275     -33431.895      54.762135      123234.33    
    520000   300.72153     -53739.254      9420.6596     -33562.766      299.31511      123023.05    
    522500   302.55182     -53652.414      9361.4394     -33469.683     -74.594271      123997.36    
    525000   298.72604     -53664.602      9481.1807     -33498.965     -348.57832      123440.2     
    527500   298.32736     -53540.095      9590.9999     -33278.898      910.22141      124376.08    
    530000   301.38755     -53552.019      9543.0095     -33229.36      -481.36535      124090.13    
    532500   299.3194      -53614.853      9487.2467     -33421.927      525.36077      123998.74    
    535000   298.81431     -53608.875      9585.22       -33336.041      152.42951      123593.82    
    537500   299.65364     -53715.725      9523.7011     -33474.391     -882.20229      123372.18    
    540000   301.94001     -53701.85       9544.0823     -33358.358     -544.60345      123261.36    
    542500   301.43454     -53565.528      9522.6527     -33261.545      327.03255      123819.7     
    545000   297.53349     -53583.51       9520.91       -33420.797     -195.72846      123812.97    
    547500   302.65801     -53628.819      9524.808      -33278.92      -419.21678      123880.62    
    550000   297.52414     -53672.492      9490.5065     -33540.517      454.14319      123647.77    
    552500   301.0709      -53707.324      9382.1793     -33556.82       1309.1304      123335.55    
    555000   297.25743     -53549.148      9526.8255     -33390.393      288.22645      124122.17    
    557500   303.77057     -53543.273      9553.2221     -33125.168      803.86613      123352.58    
    560000   299.08448     -53550.339      9430.5454     -33422.517     -238.45957      124173.48    
    562500   302.11285     -53535.918      9522.4814     -33207.845      1306.4915      124189.18    
    565000   298.51178     -53585.873      9516.1261     -33392.954     -1066.0611      123946.25    
    567500   299.74107     -53628.767      9558.7341     -33349.272     -298.15168      124024.71    
    570000   297.24098     -53578.392      9487.0795     -33459.972     -1372.8397      123725.16    
    572500   297.36877     -53585.022      9442.7903     -33506.321     -263.54283      123486.1     
    575000   301.56622     -53574.75       9602.324      -33186.386     -164.17983      123713.66    
    577500   301.30567     -53638.411      9495.5707     -33366.119      232.02402      123820.86    
    580000   296.73292     -53646.337      9540.0373     -33493.131      967.7209       123668.79    
    582500   303.37359     -53641.155      9606.5616     -33183.909      628.32615      123754.88    
    585000   303.99423     -53664.936      9547.4456     -33244.607     -252.085        123382.29    
    587500   300.96664     -53714.205      9542.7146     -33406.895      251.78859      123096.58    
    590000   300.11329     -53708.935      9576.5848     -33398.276      433.69071      123577.78    
    592500   302.52457     -53682.274      9656.7175     -33205.239     -918.49963      123798.72    
    595000   297.74328     -53738.672      9587.021      -33502.344      173.40214      123358.31    
    597500   293.9007      -53653.826      9440.5064     -33701.449     -1122.2445      123475.71    
    600000   301.42088     -53647.811      9474.5117     -33392.457      926.65726      123522.13    
    602500   300.80046     -53626.986      9496.7688     -33371.565      605.13828      123488.83    
    605000   296.34606     -53584.251      9387.0176     -33597.901      1241.9952      123745.91    
    607500   304.41706     -53593.664      9514.9152     -33190.743     -392.38325      123907.76    
    610000   301.60589     -53604.867      9529.7773     -33287.63       605.83702      123626.07    
    612500   300.10162     -53694.886      9399.3177     -33561.912     -598.08432      123642.87    
    615000   300.39099     -53706.468      9486.7324     -33475.729      432.21857      123706.13    
    617500   301.30964     -53656.659      9609.9139     -33269.882      1046.3926      123144.47    
    620000   302.53585     -53645.94       9420.0951     -33405.124     -71.557256      123408.67    
    622500   303.3304      -53614.015      9592.5715     -33172.304     -59.186649      123695.36    
    625000   298.5627      -53681.79       9594.6377     -33408.539     -180.9176       123657       
    627500   301.91685     -53624.16       9613.9538     -33211.625      516.28428      123623.36    
    630000   298.85094     -53631.065      9467.5659     -33474.576     -588.26115      124157.23    
    632500   298.89239     -53658.412      9492.6218     -33475.384      539.45353      123380.94    
    635000   301.91279     -53588.927      9500.4481     -33290.042      116.75185      124006.4     
    637500   299.12533     -53692.211      9534.2468     -33459.226      1087.3407      123657.86    
    640000   302.20845     -53717.822      9529.4957     -33379.316      1082.8725      123145.23    
    642500   300.20995     -53665.058      9502.2746     -33425.253     -709.57764      123700.78    
    645000   299.25773     -53661.97       9519.2871     -33439.21      -446.28404      123432.4     
    647500   294.66143     -53600.817      9444.902      -33616.836     -335.57183      124013.08    
    650000   297.1811      -53674.673      9574.353      -33471.121      268.3901       123507.26    
    652500   301.68255     -53634.568      9492.1202     -33352.246     -650.10212      123287.45    
    655000   297.89094     -53613.976      9477.7324     -33481.655      568.38207      123717.17    
    657500   297.03597     -53625.191      9410.465      -33590.718     -579.65669      123938.57    
    660000   302.45441     -53651.338      9638.6261     -33194.904     -293.82862      123438.83    
    662500   302.4394      -53653.652      9428.6348     -33407.746     -387.64482      123882.77    
    665000   300.07246     -53573.071      9570.311      -33270.146      121.60122      124147.16    
    667500   299.3344      -53511.534      9487.7213     -33317.598      58.8053        124545.22    
    670000   302.29912     -53568.136      9452.4641     -33303.418      1752.9279      123846.96    
    672500   302.24653     -53588.03       9359.6271     -33418.03      -16.040209      123943.03    
    675000   302.85605     -53588.509      9376.3207     -33380.015      119.8953       124328.63    
    677500   294.23695     -53596.79       9339.7428     -33733.151     -669.45728      124001.58    
    680000   294.1492      -53668.82       9578.5522     -33569.51      -448.01487      123463.45    
    682500   296.86756     -53720.603      9617.0746     -33485.544      44.78163       123400.47    
    685000   303.15367     -53651.176      9561.2898     -33247.068     -306.02999      123887.74    
    687500   301.14632     -53632.883      9551.7891     -33310.072     -297.84479      123910.39    
    690000   301.32953     -53684.588      9493.8953     -33413.118      519.53608      123463.67    
    692500   300.30008     -53665.115      9524.0502     -33400.31       793.98538      123511.39    
    695000   302.27145     -53619.602      9554.1422     -33254.196     -92.802933      123532.33    
    697500   303.68871     -53637.852      9491.3324     -33284.565      63.445885      124119.71    
    700000   301.02146     -53626.783      9493.2676     -33366.959      850.8105       124035.1     
    702500   296.21638     -53663.54       9539.1478     -33529.698      844.48343      123487.36    
    705000   302.06041     -53568.295      9518.7555     -33245.824      166.41631      123667.43    
    707500   298.58596     -53600.605      9455.3474     -33465.811      155.2879       123747.57    
    710000   297.02322     -53588.951      9529.1209     -33436.278      185.6184       123947.54    
    712500   299.62556     -53483.739      9624.8441     -33142.266     -619.79594      124314.27    
    715000   296.24405     -53572.883      9541.9378     -33435.261     -45.606563      123935.27    
    717500   299.79628     -53658.19       9425.4703     -33509.984     -251.56245      123488.98    
    720000   297.95981     -53613.511      9595.1335     -33361.327      255.46094      123847.59    
    722500   300.0926      -53658.672      9621.1803     -33304.157     -138.58679      123802.44    
    725000   300.9265      -53638.833      9586.582      -33289.091      523.30011      123865.33    
    727500   298.7151      -53567.998      9689.4312     -33194.502      212.01906      124021.8     
    730000   301.19715     -53580.753      9544.5584     -33263.355     -146.27724      123730.03    
    732500   298.13523     -53598.991      9578.2306     -33357.435     -1123.9743      123742.71    
    735000   301.60252     -53625.563      9607.5895     -33230.634      134.08713      123339.4     
    737500   298.57397     -53659.331      9445.9279     -33534.386      229.72658      123584.43    
    740000   296.05593     -53620.677      9590.6899     -33441.032     -149.20582      124072.2     
    742500   298.96599     -53680.484      9510.9424     -33476.503     -156.35135      123686.71    
    745000   299.69474     -53556          9551.0515     -33285.845     -206.64388      123715.98    
    747500   298.78328     -53541.009      9576.9926     -33277.512     -495.24069      124218.7     
    750000   301.67058     -53600.616      9643.1988     -33167.644     -488.26943      123793.98    
    752500   297.99772     -53611.691      9491.3841     -33461.9       -645.55915      123804.36    
    755000   299.78114     -53591.706      9585.8859     -33283.627      99.755559      123867.11    
    757500   296.51805     -53628.957      9545.7397     -33477.733     -942.78348      124277.91    
    760000   303.87017     -53697.177      9489.1659     -33339.566     -176.97511      123363.13    
    762500   298.75111     -53610.774      9600.5597     -33324.861      11.921385      123856.93    
    765000   296.7609      -53583.027      9548.1394     -33420.718      4.0090375      123992.08    
    767500   299.42491     -53614.664      9547.531      -33357.68      -352.37095      123648.29    
    770000   298.69537     -53601.798      9542.512      -33375.927     -58.711469      123889.86    
    772500   301.46795     -53698.341      9599.3105     -33316.505      64.945865      123872.15    
    775000   300.25702     -53634.214      9581.8412     -33313.158      556.80633      123766.03    
    777500   299.24524     -53621.979      9529.3438     -33389.609      865.73953      123377.75    
    780000   300.5238      -53587.478      9578.289      -33260.432      177.80538      123788.86    
    782500   299.44463     -53673.438      9446.5217     -33516.758     -49.902472      123444.48    
    785000   299.70494     -53632.247      9571.2766     -33341.502      23.691952      123475.92    
    787500   297.94352     -53632.217      9613.7525     -33361.996     -12.48837       123555.55    
    790000   299.4332      -53659.094      9525.6856     -33423.659     -168.04142      123570.78    
    792500   300.06681     -53586.316      9566.0721     -33287.832     -59.873709      123702.09    
    795000   299.82522     -53627.805      9476.1385     -33427.896     -344.66333      123935.32    
    797500   295.5866      -53673.798      9536.717      -33564.912      526.06913      123618.47    
    800000   299.28242     -53713.026      9749.1564     -33259.513     -113.09936      123171.3     
    802500   301.30005     -53746.447      9646.2404     -33323.686     -129.22008      123259.15    
    805000   297.66232     -53666.87       9474.1877     -33546.272      654.49408      123453.92    
    807500   303.30471     -53716.931      9526.7733     -33341.937      924.1922       123572.85    
    810000   302.2469      -53718.633      9440.5178     -33467.729     -57.515539      123314.75    
    812500   299.78331     -53650.407      9484.971      -33443.164      1259.664       123251.07    
    815000   299.05266     -53669.797      9415.9342     -33557.724     -108.63123      123828.18    
    817500   298.76681     -53645.306      9569.1608     -33390.23      -667.42117      123447       
    820000   304.07606     -53560.853      9470.5782     -33214.466     -440.95553      123797.08    
    822500   301.28842     -53542.999      9545.3188     -33221.575     -689.59691      124125.07    
    825000   298.64687     -53679.29       9547.8065     -33449.858      741.31011      123583.17    
    827500   299.40343     -53749.121      9436.5485     -33603.888      282.23377      123321.52    
    830000   296.85059     -53687.417      9617.7005     -33452.338     -561.24287      123571.58    
    832500   298.2042      -53762.291      9494.6472     -33601.851     -344.38572      123281.84    
    835000   298.81307     -53762.747      9567.9989     -33507.179      356.3604       123402.36    
    837500   301.32846     -53684.819      9660.2023     -33247.08       338.91603      123338.71    
    840000   299.9314      -53689.693      9582.272      -33379.852      386.79038      123594.2     
    842500   298.34864     -53708.234      9583.3802     -33453.895     -253.17314      123229.41    
    845000   300.74556     -53708.329      9389.8752     -33561.765     -889.82295      123639.41    
    847500   300.13647     -53630.738      9397.1459     -33498.689      383.80463      123615.13    
    850000   299.71919     -53665.816      9453.4714     -33492.366      206.64444      123451.56    
    852500   298.89148     -53673.638      9470.2774     -33512.987      257.91244      123453.93    
    855000   299.50791     -53632.831      9530.9315     -33389.478     -274.99532      123579.74    
    857500   299.27929     -53649.922      9517.9269     -33427.75       344.27639      124101.07    
    860000   299.50222     -53601.431      9592.7258     -33296.487     -561.00485      124057.55    
    862500   299.15735     -53642.966      9520.7754     -33422.307     -535.73414      123671.48    
    865000   301.34973     -53644.796      9379.3296     -33487.169     -236.76513      123688.45    
    867500   301.0552      -53592.09       9403.6617     -33420.665      756.71496      123707.68    
    870000   298.61161     -53586.179      9490.3993     -33415.416      260.77175      124116.28    
    872500   301.04195     -53622.708      9581.2803     -33274.138      679.22173      123590.53    
    875000   298.82035     -53634.648      9495.9634     -33450.855      38.819172      123666.26    
    877500   300.55966     -53628.996      9582.8109     -33296.146     -657.39288      123768.75    
    880000   297.05569     -53678.033      9443.5659     -33609.753     -145.41532      123480.97    
    882500   298.40314     -53588.395      9611.2092     -33304.278     -860.31633      123927.04    
    885000   297.70121     -53610.296      9577.3398     -33385.154     -1064.6852      124101.4     
    887500   296.40951     -53662.439      9521.4614     -33539.376     -864.57906      123714.09    
    890000   295.69313     -53688.847      9472.3596     -33640.508     -706.33218      123182.52    
    892500   299.39163     -53746.797      9437.5119     -33601.022      405.84212      123179.92    
    895000   297.93857     -53698.104      9461.1962     -33580.616      546.99228      123438.3     
    897500   303.58124     -53590.24       9552.7642     -33179.364     -581.0108       123668.45    
    900000   304.04213     -53605.332      9631.8521     -33098.884     -412.51687      123811.27    
    902500   301.15366     -53692.261      9523.6649     -33397.312     -169.46359      123416.77    
    905000   299.93692     -53608.426      9647.1586     -33233.502     -798.36783      123381.92    
    907500   304.15984     -53566.663      9460.9102     -33226.947     -1069.5239      124215.86    
    910000   304.42826     -53590.616      9509.3695     -33192.84       719.02484      123456.1     
    912500   295.69741     -53722.246      9492.8376     -33653.276      756.41628      123194.62    
    915000   297.92025     -53631.82       9522.6019     -33453.582     -304.49448      123480.73    
    917500   296.34415     -53618.671      9524.9848     -33494.423     -515.51166      123580.82    
    920000   300.05998     -53696.768      9356.2756     -33608.325     -294.51643      123281.15    
    922500   300.51209     -53690.814      9502.4681     -33440.008     -255.7265       123241.58    
    925000   303.57116     -53707.338      9504.3155     -33345.272     -671.9935       123284       
    927500   305.26773     -53608.644      9435.8228     -33254.39       256.58775      123852.71    
    930000   301.31714     -53654.52       9525.3564     -33352.032      1129.7167      123500.35    
    932500   297.24297     -53723.153      9544.4303     -33547.311      311.64452      123318.03    
    935000   297.68914     -53760.028      9493.0699     -33619.588      351.76525      122730.66    
    937500   298.93152     -53824.61       9533.3054     -33599.499      44.696969      122566.75    
    940000   301.04038     -53756.769      9485.9201     -33503.616      45.938735      123287.12    
    942500   301.56774     -53706.732      9454.479      -33466.158      158.75044      123267.82    
    945000   301.05369     -53727.644      9431.0206     -33528.914      1293.3382      123228.36    
    947500   302.20209     -53698.378      9589.8261     -33299.768      264.99278      123518.29    
    950000   299.28403     -53700.906      9447.7649     -33548.727     -484.00908      123679.83    
    952500   298.824       -53647.269      9455.8883     -33503.42       218.26892      123349.23    
    955000   301.96113     -53726.148      9571.7094     -33354.274     -713.67139      123042.69    
    957500   299.30853     -53705.971      9601.9064     -33398.775     -281.93744      123407.36    
    960000   299.92591     -53713.675      9689.5734     -33296.729     -243.04706      123202.16    
    962500   300.8035      -53672.48       9542.8158     -33370.904      697.7172       123599.06    
    965000   301.00356     -53694.801      9543.985      -33384.9        45.410003      123448.11    
    967500   302.47812     -53645.446      9532.1629     -33294.627      637.57112      123559.42    
    970000   299.71667     -53744.242      9532.5695     -33491.784      71.071464      123268.03    
    972500   295.3139      -53715.868      9515.3532     -33638.099     -59.080918      123205.52    
    975000   303.97166     -53787.109      9641.7844     -33273.249      150.04817      122838.91    
    977500   301.57243     -53749.591      9530.7254     -33432.603      1344.2126      122982.88    
    980000   301.44836     -53741.898      9605.1807     -33354.892      862.21517      122786.47    
    982500   298.22556     -53806.805      9608.5794     -33531.669     -72.148288      122972.17    
    985000   301.88951     -53743.196      9508.7823     -33436.81       58.480264      123172.39    
    987500   299.27496     -53727.795      9391.2114     -33632.493     -919.0732       123162.68    
    990000   301.8179      -53702.607      9472.5048     -33435.06       524.24745      123480.23    
    992500   298.47426     -53688.645      9636.7366     -33376.457     -720.17295      123334.55    
    995000   302.88537     -53674.39       9489.0214     -33352.146      110.5373       123482.36    
    997500   302.72462     -53667.246      9482.487      -33357.287      379.9122       123217.29    
   1000000   301.7081      -53700.683      9493.3777     -33416.19      -262.5529       123323.75    
   1002500   299.50735     -53648.097      9502.7052     -33432.99      -71.512616      123346.93    
   1005000   302.18992     -53660.467      9442.3878     -33409.731      81.636156      123565.55    
   1007500   302.38996     -53728.586      9501.2293     -33411.854      791.7805       123100.15    
   1010000   296.51101     -53711.783      9551.1591     -33555.392     -111.9998       122986.88    
   1012500   298.34021     -53753.99       9545.9909     -33537.342      857.43484      123240.8     
   1015000   300.4571      -53642.271      9446.6972     -33449.203     -368.64882      123458.43    
   1017500   299.60017     -53657.057      9410.3604     -33530.975      394.47328      123921.1     
   1020000   301.50085     -53643.986      9469.6312     -33390.652      126.43305      123560.31    
   1022500   298.53218     -53637.522      9689.1586     -33270.84      -262.13794      123427.5     
   1025000   304.27502     -53746.376      9633.9843     -33229.466     -411.39025      123467.01    
   1027500   301.29908     -53754.065      9605.3015     -33372.278      573.72827      122965.02    
   1030000   300.16029     -53720.363      9331.8358     -33652.772      438.93779      123413.16    
   1032500   302.13444     -53664.249      9554.9548     -33302.931     -545.6979       123365.73    
   1035000   303.35422     -53635.417      9626.0463     -33159.379     -309.43347      123837.72    
   1037500   298.10402     -53671.609      9674.9363     -33334.464     -102.23929      123729.69    
   1040000   300.914       -53627.557      9562.2631     -33302.581      607.40789      123496.02    
   1042500   296.0333      -53665.431      9521.054      -33556.231     -333.59903      123438.03    
   1045000   300.00768     -53769.031      9570.6694     -33468.065      879.41197      123033.21    
   1047500   297.32842     -53628.941      9433.9646     -33560.509      794.18549      123710.99    
   1050000   298.71731     -53665.718      9609.8678     -33371.705     -262.71245      123526.03    
   1052500   300.95484     -53663.022      9550.0884     -33348.76       452.96304      123170.14    
   1055000   298.92763     -53689.085      9600.7905     -33396.627      112.02512      123584.52    
   1057500   301.23185     -53678.456      9364.6768     -33539.698      46.395603      123614.36    
   1060000   299.76476     -53663.863      9444.5948     -33497.66      -633.65643      123509.55    
   1062500   300.24044     -53659.608      9624.1706     -33296.816      390.26163      123456.39    
   1065000   297.9626      -53632.361      9586.796      -33388.415     -8.2211754      123621.8     
   1067500   300.68639     -53687.045      9422.7508     -33509.722      1046.3265      123137.78    
   1070000   298.91363     -53701.187      9352.0177     -33658.003      130.61531      123483.95    
   1072500   300.96528     -53677.252      9655.7248     -33256.98       832.62768      123676.21    
   1075000   298.97734     -53706.065      9498.1044     -33514.515     -764.96808      123530.7     
   1077500   298.43336     -53686.161      9410.274      -33601.899     -161.97055      123578.04    
   1080000   299.16481     -53680.558      9664.1474     -33316.26      -40.29911       123192.96    
   1082500   300.2355      -53830.035      9520.0733     -33571.517      288.85398      122967.94    
   1085000   300.31495     -53659.156      9566.9255     -33350.944      43.205898      123390.44    
   1087500   300.67961     -53672.7        9540.7043     -33377.666     -101.35414      122934.99    
   1090000   305.90892     -53642.451      9467.6126     -33233.474     -910.51573      123580.06    
   1092500   298.91177     -53639.874      9461.4779     -33487.296     -178.52884      123929.91    
   1095000   296.71006     -53693.783      9467.1176     -33614.314     -300.28794      123401.54    
   1097500   299.01054     -53677.124      9419.8265     -33562.665     -682.87797      123357.57    
   1100000   300.06232     -53665.35       9562.5262     -33370.572     -930.54815      123714.55    
   1102500   297.45173     -53788.05       9536.9601     -33612.212      49.30492       122979.1     
   1105000   301.17701     -53703.264      9558.8279     -33372.316      915.93838      123437.07    
   1107500   300.27045     -53730.083      9389.9025     -33600.486     -729.78783      123312.97    
   1110000   301.48711     -53779.251      9524.3459     -33471.694     -143.53206      123188.87    
   1112500   298.48262     -53798.2        9438.657      -33683.793     -180.29673      123077.08    
   1115000   302.72695     -53754.019      9537.6023     -33388.861     -9.8322801      123068.55    
   1117500   299.64823     -53773.175      9590.1516     -33465.583      243.71058      123269.91    
   1120000   301.02888     -53741.439      9457.2931     -33517.324      886.47936      122828.99    
   1122500   298.07729     -53737.167      9498.6522     -33577.262     -52.17244       123243.19    
   1125000   301.83964     -53782.905      9495.3868     -33491.699     -137.86518      122933.83    
   1127500   299.01314     -53796.207      9405.5976     -33695.884     -31.810607      123364.47    
   1130000   298.29525     -53752.09       9583.4516     -33499.59      -800.31545      123125.03    
   1132500   297.0823      -53695.471      9525.8153     -33543.991      450.15981      123769.53    
   1135000   297.19556     -53742.243      9531.5137     -33581.013     -600.1519       123420.71    
   1137500   301.28934     -53732.526      9537.1306     -33419.258     -56.310658      122795.18    
   1140000   299.47474     -53708.487      9420.9259     -33576.326     -1158.6435      123287.57    
   1142500   300.60103     -53795.661      9510.4544     -33533.688      1194.5011      123245.05    
   1145000   301.04092     -53784.126      9565.3028     -33451.571     -525.95117      123173.29    
   1147500   300.34395     -53743.169      9585.4904     -33415.355     -170.26093      123189.52    
   1150000   301.50554     -53675.577      9519.3406     -33372.366     -619.76393      123538.4     
   1152500   297.75393     -53804.837      9602.2565     -33552.893     -52.783145      123036.46    
   1155000   295.55338     -53680.888      9465.1559     -33644.751     -692.10497      123144.53    
   1157500   301.46327     -53724.986      9599.9822     -33342.645      428.1581       123098.93    
   1160000   299.11815     -53704.063      9407.9163     -33597.666     -559.88199      123244.64    
   1162500   301.41028     -53653.084      9520.6552     -33351.966     -3.2519019      123948.1     
   1165000   298.30854     -53771.961      9455.4015     -33647.035      392.70023      122665.61    
   1167500   300.75543     -53678.343      9624.5463     -33296.756     -304.91955      123362.79    
   1170000   299.51663     -53779.988      9441.3136     -33625.941     -67.241723      123195.58    
   1172500   301.96096     -53715.563      9579.604      -33335.8        227.19796      123511.53    
   1175000   301.5841      -53769.54       9532.8958     -33449.964     -240.63853      123324.72    
   1177500   298.23672     -53595.675      9513.3533     -33415.367     -542.57044      123616.9     
   1180000   301.22867     -53670.093      9516.692      -33379.434      627.54126      123530.83    
   1182500   300.29065     -53609.146      9529.7113     -33339.017      670.62724      123898.93    
   1185000   304.7752      -53602.814      9612.8277     -33089.171      262.80145      123419.6     
   1187500   302.43463     -53661.33       9634.328      -33209.901     -332.10714      123150.73    
   1190000   300.91826     -53683.303      9492.3493     -33428.088     -442.42395      123522.92    
   1192500   301.37317     -53650.195      9491.3341     -33379.725     -429.04083      123941.21    
   1195000   301.50898     -53686.436      9462.5662     -33439.876     -474.62251      123491.62    
   1197500   299.0899      -53715.559      9594.9772     -33423.111      65.677447      123242.02    
   1200000   299.50433     -53623.872      9472.1351     -33439.443      344.30811      123566.19    
   1202500   296.34088     -53752.81       9556.5483     -33597.114      11.710761      123240.24    
   1205000   300.34903     -53636.026      9586.5084     -33307.012      394.14482      123836.09    
   1207500   296.93724     -53670.365      9510.7062     -33539.181     -273.27023      123865.79    
   1210000   298.44869     -53752.659      9462.3525     -33615.77      -1298.7999      123077.37    
   1212500   301.10022     -53700.369      9510.245      -33420.751      140.68787      123126.67    
   1215000   299.73711     -53653.896      9492.5409     -33440.735      331.73872      123269.82    
   1217500   300.87087     -53680.892      9415.2103     -33504.512     -121.10243      123467.27    
   1220000   301.84795     -53558.029      9440.3989     -33321.513     -26.573675      123839.69    
   1222500   300.31003     -53718.991      9560.5136     -33417.367      753.49594      123555.01    
   1225000   297.38147     -53593.554      9542.5561     -33414.632     -1032.8125      123986.38    
   1227500   300.33202     -53645.133      9531.2217     -33372.015     -494.71709      123378.62    
   1230000   297.56219     -53707.063      9527.1938     -33537.04      -619.09901      123203.39    
   1232500   299.6524      -53566.939      9545.896      -33303.454     -184.02854      123954.02    
   1235000   299.00155     -53694.994      9416.6756     -33584.008     -47.477178      122997.62    
   1237500   298.00232     -53642.005      9590.5393     -33392.894     -391.50675      123386.55    
   1240000   301.49232     -53700.835      9556.9302     -33360.508      90.038682      123667.81    
   1242500   301.65863     -53696.962      9552.882      -33354.734     -59.108506      123344.37    
   1245000   303.34535     -53648.275      9522.5786     -33276.022     -245.06145      123484       
   1247500   301.72734     -53689.079      9501.2518     -33396.024     -428.91027      123751.02    
   1250000   299.88316     -53700.475      9467.6245     -33507.007     -308.9519       123685.7     
   1252500   302.14675     -53731.962      9506.6217     -33418.536     -156.91643      123184.4     
   1255000   304.42951     -53698.07       9501.1364     -33308.482     -324.37003      123232.89    
   1257500   302.35051     -53770.021      9517.3818     -33438.547     -640.28137      123248.03    
   1260000   301.30969     -53659.591      9510.3734     -33372.352      397.52172      123294.42    
   1262500   303.2846      -53672.531      9601.0511     -33223.979      1550.6592      123274       
   1265000   300.9676      -53707.795      9703.6306     -33239.535     -404.04335      123283.09    
   1267500   301.81447     -53749.144      9475.1159     -33479.109     -336.23128      123176.64    
   1270000   296.29852     -53662.182      9620.0369     -33444.513     -1596.322       123265.89    
   1272500   297.76449     -53702.606      9620.0614     -33432.48       892.10994      123202.5     
   1275000   298.88413     -53684.588      9763.8283     -33230.649     -820.78885      123787.38    
   1277500   299.74718     -53732.879      9499.6262     -33512.273     -587.12475      123527.88    
   1280000   302.25927     -53627.427      9462.6711     -33353.927      501.90205      123681.91    
   1282500   299.16848     -53599.669      9402.4041     -33496.984      374.14707      123561.57    
   1285000   297.8913      -53729.88       9311.6875     -33763.592      391.39159      123292.87    
   1287500   297.01895     -53689.379      9468.1924     -33597.787      219.78867      123642.54    
   1290000   301.89587     -53689.897      9419.6464     -33472.42       860.79248      123419.17    
   1292500   297.86116     -53694.456      9465.6272     -33575.307     -191.41155      123591.29    
   1295000   297.77906     -53684.317      9515.381      -33518.35       594.59768      123339.67    
   1297500   297.80612     -53680.632      9565.0234     -33464.055     -945.6243       123385.19    
   1300000   302.3968      -53598.249      9527.2272     -33255.274     -91.551311      123747.58    
   1302500   299.39608     -53720.409      9471.7759     -33540.212     -643.21672      123482.79    
   1305000   300.79005     -53682.826      9450.7929     -33473.753     -178.44851      123393.25    
   1307500   302.73232     -53664.573      9581.5182     -33255.307      160.07547      123715.61    
   1310000   300.73685     -53678.561      9450.0011     -33472.183     -480.57778      123654.97    
   1312500   299.83168     -53684.513      9640.2365     -33320.275     -331.28918      123265.28    
   1315000   299.01036     -53759.023      9370.8282     -33693.57       499.55195      122851.28    
   1317500   301.73309     -53687.212      9455.0498     -33440.153     -582.18796      123422.09    
   1320000   300.09768     -53661.749      9560.4887     -33367.744      390.85753      123808.84    
   1322500   302.82261     -53627.481      9596.7946     -33199.709      1885.4842      123594.08    
   1325000   299.91806     -53732.264      9536.3188     -33468.854     -704.46499      123263.85    
   1327500   298.80028     -53744.075      9734.8924     -33322.07      -1365.029       123619.11    
   1330000   300.74021     -53687.377      9547.3306     -33383.55       219.68389      123422.3     
   1332500   298.70543     -53767.879      9607.2423     -33476.917     -257.34811      123177.58    
   1335000   298.22847     -53667.801      9534.9557     -33466.185     -376.68952      123682.58    
   1337500   301.26203     -53761.884      9658.6923     -33328.031      568.27252      123261.26    
   1340000   299.7864      -53752.344      9571.8303     -33458.131      260.07664      123631.68    
   1342500   300.23649     -53674.535      9369.2959     -33566.758     -631.36307      124170.04    
   1345000   299.84802     -53715.386      9600.8639     -33389.936      319.82006      123953.41    
   1347500   299.25625     -53712.651      9428.5452     -33580.685      618.63304      123672.05    
   1350000   299.44032     -53740.183      9432.6601     -33597.519     -31.409935      123328.8     
   1352500   302.96715     -53711.411      9561.3976     -33313.866      660.77854      123452.31    
   1355000   298.10525     -53707.347      9430.5878     -33614.506      707.89367      123250.07    
   1357500   298.90089     -53692.137      9576.3922     -33425.034      480.52037      123614.12    
   1360000   299.21204     -53704.831      9623.2127     -33379.779      631.83605      123286.86    
   1362500   298.56152     -53638.59       9422.0772     -33537.94      -582.24798      123728.45    
   1365000   299.12738     -53570.703      9569.3343     -33302.558      36.357166      123828.29    
   1367500   301.16452     -53687.333      9540.1024     -33375.558      899.03107      123294.13    
   1370000   295.47906     -53662.122      9499.9064     -33593.893     -8.3683308      124115.41    
   1372500   296.90583     -53691.544      9531.6223     -33540.568      1626.3183      122902.2     
   1375000   299.80263     -53597.69       9453.9959     -33420.731      1588.5334      123533.94    
   1377500   302.35143     -53701.499      9397.1464     -33490.228     -234.91985      123593.48    
   1380000   301.27879     -53697.106      9512.4951     -33408.851     -1142.733       123884.7     
   1382500   299.91756     -53684.232      9616.2851     -33340.873      6.7472958      123605.09    
   1385000   298.14054     -53613.04       9506.7564     -33442.768     -350.764        123801       
   1387500   299.5551      -53626.898      9453.1346     -33459.655     -126.3474       123501.61    
   1390000   296.14812     -53572.155      9456.3568     -33523.545      24.078401      123717.04    
   1392500   299.68844     -53679.128      9478.1939     -33482.056     -177.6915       123369.04    
   1395000   301.71367     -53602.929      9512.1725     -33299.443     -97.847952      123836.93    
   1397500   303.83396     -53618.165      9462.8095     -33288.205     -430.47046      124065.86    
   1400000   297.39772     -53552.347      9512.9181     -33402.482     -701.8331       123976.79    
   1402500   300.25819     -53691.284      9468.4131     -33483.614     -963.1451       123584.17    
   1405000   299.9695      -53676.99       9415.8912     -33532.168      63.05498       123398.59    
   1407500   296.71941     -53662.212      9526.8571     -33522.669     -86.227778      123456.89    
   1410000   303.13582     -53636.273      9313.038      -33481.055     -608.60188      123689.35    
   1412500   300.70411     -53717.744      9503.8366     -33458.701      393.71153      123256.62    
   1415000   297.22217     -53701.494      9501.5994     -33569.226     -195.93633      123571.51    
   1417500   301.31741     -53679.709      9548.723      -33353.845      1039.8129      123410.31    
   1420000   301.93446     -53613.844      9509.7299     -33304.902      139.59253      123495.43    
   1422500   303.41136     -53673.616      9487.9366     -33333.644     -160.28086      123770.66    
   1425000   297.68366     -53627.914      9549.5235     -33431.216     -1439.815       124031.73    
   1427500   302.0743      -53663.695      9387.0399     -33472.442      629.6494       123076.94    
   1430000   297.87419     -53623.054      9493.1068     -33475.958     -844.59365      123696.72    
   1432500   303.76346     -53644.176      9616.4135     -33163.133     -1065.7739      123539.97    
   1435000   298.59843     -53709.658      9608.1692     -33421.597      779.98397      123274.45    
   1437500   302.06318     -53670.887      9616.6188     -33250.453      925.24965      123180.49    
   1440000   297.82061     -53622.066      9577.9679     -33392.026      657.26708      123510.18    
   1442500   299.85936     -53724.783      9581.8354     -33417.956     -119.24604      123599.74    
   1445000   299.8459      -53669.333      9330.0093     -33614.813      1308.944       123348.06    
   1447500   301.68639     -53728.421      9461.5389     -33476.543      266.66369      123204.72    
   1450000   301.27959     -53796.667      9561.0892     -33459.789      571.93254      122758.84    
   1452500   301.04348     -53751.035      9566.6332     -33417.058     -944.57061      122911.3     
   1455000   300.17698     -53711.3        9498.6284     -33476.32       224.11691      123142.15    
   1457500   300.32643     -53723.507      9610.6928     -33371.117      1137.4741      123575.35    
   1460000   298.97591     -53736.62       9512.3899     -33530.837      180.48033      123095.34    
   1462500   300.01911     -53664.815      9563.7237     -33370.386      224.93709      123486.88    
   1465000   294.28757     -53593.629      9483.834      -33584.088     -487.65071      123776.23    
   1467500   298.59389     -53537.828      9681.7311     -33176.366     -133.77608      124054.89    
   1470000   299.04602     -53556.588      9477.4369     -33383.25       49.962058      124080.69    
   1472500   301.21913     -53640.794      9499.012      -33368.156      178.16004      123987.68    
   1475000   296.64457     -53602.638      9516.2372     -33476.392     -425.65493      123856.67    
   1477500   298.39576     -53628.403      9553.2378     -33402.522      405.03644      123448.53    
   1480000   297.54309     -53683.586      9468.9234     -33572.517     -915.26242      123317.79    
   1482500   299.18648     -53707.441      9611.5256     -33394.991      267.14779      123199.82    
   1485000   302.19981     -53651.519      9665.3294     -33177.487     -385.36391      124153.57    
   1487500   301.09756     -53624.499      9394.467      -33460.754     -941.3134       123861.23    
   1490000   303.81604     -53719.804      9348.5844     -33504.711      237.1376       123451.93    
   1492500   299.93068     -53670.781      9747.0944     -33196.144     -809.15093      123711.28    
   1495000   299.26702     -53695.992      9720.6036     -33271.583      421.6424       123047.33    
   1497500   296.19878     -53662.829      9404.6207     -33664.144      443.32089      123411.2     
   1500000   299.47646     -53704.045      9592.0606     -33400.688      73.373879      123370.12    
   1502500   299.23618     -53768.39       9604.4272     -33461.26       1083.6479      123090.27    
   1505000   299.25456     -53772.918      9565.1837     -33504.374     -885.19261      123110.87    
   1507500   303.225       -53852.026      9671.2633     -33335.393     -639.50096      122589.54    
   1510000   300.68952     -53728.791      9363.8586     -33610.249      39.847529      123295.27    
   1512500   299.19454     -53633.313      9493.3665     -33438.733     -788.90488      123678.21    
   1515000   303.77892     -53717.469      9509.8522     -33342.435     -3.5841217      123389.96    
   1517500   298.82376     -53722.421      9474.0024     -33560.466     -742.05962      123075.78    
   1520000   297.0245      -53701.926      9458.6554     -33619.672      564.65328      123269.02    
   1522500   298.92486     -53662.854      9548.8393     -33422.447      144.12433      123567.85    
   1525000   299.38729     -53620.204      9593.4406     -33318.656     -222.58129      123485.17    
   1527500   301.07635     -53626.189      9511.1181     -33346.551     -203.04379      123731.86    
   1530000   300.43548     -53685.384      9435.6494     -33504.137      153.48549      122887.71    
   1532500   303.86566     -53715.476      9531.722      -33315.47       378.53908      123407.56    
   1535000   303.29633     -53659.326      9517.6173     -33293.788     -256.47718      123715.73    
   1537500   299.33415     -53620.021      9460.5474     -33453.267      799.82771      123505.05    
   1540000   298.66359     -53649.082      9499.3953     -33467.464     -292.98421      123787.21    
   1542500   297.8567      -53680.854      9401.8621     -33625.628      758.5964       122932.62    
   1545000   304.28587     -53687.11       9473.6796     -33330.117      418.84377      123590.06    
   1547500   301.23248     -53661.496      9486.4209     -33400.972     -263.46648      123700.1     
   1550000   300.79335     -53657.934      9520.5047     -33379.032      713.53383      123555.22    
   1552500   300.48968     -53636.637      9489.9462     -33399.155      374.2431       124029.53    
   1555000   298.20505     -53636.49       9545.138      -33425.529      554.78883      123673.24    
   1557500   301.82704     -53712.87       9484.2102     -33433.291      124.29902      123445.42    
   1560000   303.21234     -53657.729      9496.104      -33316.708      266.14363      123502.14    
   1562500   300.09427     -53601.019      9545.1978     -33322.427     -44.154629      124088.37    
   1565000   301.6728      -53655.082      9547.0467     -33318.183      570.76321      123526.78    
   1567500   299.61403     -53619.431      9645.653      -33257.561     -132.96372      123674.51    
   1570000   300.42266     -53691.063      9533.9858     -33411.938     -499.9627       123544.6     
   1572500   302.47385     -53628.528      9568.4375     -33241.587      886.23216      123643.99    
   1575000   297.55123     -53695.316      9516.8636     -33536.015     -679.72949      123567.76    
   1577500   303.80877     -53636.458      9538.6896     -33231.519      1466.2494      123503.14    
   1580000   298.07744     -53728.845      9432.9324     -33634.654     -152.80151      123390.57    
   1582500   299.92308     -53680.051      9532.1033     -33420.677     -290.27257      123382.99    
   1585000   302.81107     -53708.478      9563.8762     -33314.037     -496.08484      123397.7     
   1587500   299.68812     -53709.329      9627.4261     -33363.035     -255.55885      123403.11    
   1590000   299.40506     -53660.313      9641.7657     -33309.804     -873.2231       123627.18    
   1592500   300.97074     -53680.558      9503.3714     -33412.444     -1003.0593      123697.27    
   1595000   299.64011     -53650.817      9450.9095     -33482.757     -252.55843      123570.11    
   1597500   300.23482     -53678.777      9574.1514     -33366.204     -1116.794       123537.53    
   1600000   298.60045     -53641.642      9528.1209     -33433.556     -171.19017      123362.43    
   1602500   297.97028     -53639.653      9495.0083     -33487.219     -293.05679      123489.47    
   1605000   300.75474     -53742.618      9407.8738     -33577.728     -347.58184      123381.71    
   1607500   299.23565     -53666.367      9489.963      -33473.721     -263.86266      123612.68    
   1610000   301.11562     -53661.062      9557.0738     -33334.064     -739.81759      123408.01    
   1612500   299.94911     -53706.859      9459.3438     -33519.313     -376.47366      123012.96    
   1615000   301.30758     -53678.863      9457.9408     -33444.132     -393.15359      123649.35    
   1617500   301.50769     -53811.164      9475.8245     -33551.392     -1181.6865      122940.53    
   1620000   300.21063     -53666.306      9556.4929     -33372.258     -681.92254      123433.67    
   1622500   297.26993     -53709.368      9542.1293     -33534.862      127.18248      122870.22    
   1625000   298.4607      -53606.584      9589.318      -33342.299     -49.383465      123944.18    
   1627500   302.66847     -53739.074      9639.1505     -33274.459     -426.33328      123376.49    
   1630000   299.1638      -53658.649      9651.2248     -33307.31       82.181125      123295.28    
   1632500   298.53899     -53705.563      9566.4042     -33461.393      471.096        123590.06    
   1635000   297.14559     -53683.006      9669.3405     -33385.737     -38.899609      123645.48    
   1637500   298.32252     -53740.347      9559.3408     -33510.982      124.19398      123511.02    
   1640000   302.62926     -53631.261      9632.1533     -33175.046     -8.7269215      123952.52    
   1642500   299.58127     -53666.573      9398.5451     -33552.983     -141.24267      123798.14    
   1645000   298.44868     -53655.05       9477.5831     -33502.931     -276.34178      123802.32    
   1647500   301.07762     -53747.27       9607.936      -33370.769      539.5556       123486.86    
   1650000   300.59556     -53728.418      9413.0349     -33564.06       405.42141      123805.54    
   1652500   294.87749     -53752.072      9566.403      -33638.862      277.00421      123126.04    
   1655000   303.31204     -53657.25       9663.5234     -33145.244      7.4140934      123672.61    
   1657500   302.18941     -53707.716      9495.1569     -33404.229     -214.19268      123442.09    
   1660000   301.59136     -53679.093      9476.7347     -33415.418      496.77946      122861.19    
   1662500   300.31011     -53688.234      9519.0287     -33428.091     -305.23421      123819.08    
   1665000   300.14336     -53638.211      9414.4939     -33488.568     -544.32203      123545.16    
   1667500   298.10534     -53690.067      9667.3015     -33360.509      44.042369      123701.78    
   1670000   298.84594     -53698.273      9632.6817     -33376.847      148.17943      123601.22    
   1672500   303.21394     -53745.463      9474.0304     -33426.459      771.3682       122813.47    
   1675000   297.48225     -53773.735      9569.9118     -33563.853      279.37041      123300.34    
   1677500   304.70133     -53768.461      9505.6299     -33364.658      1082.9449      122909.85    
   1680000   302.50271     -53687.778      9486.9081     -33381.334      773.12556      123104.77    
   1682500   295.41933     -53750.711      9578.0254     -33606.499     -393.02445      123149.3     
   1685000   299.04359     -53673.98       9542.0754     -33436.09       115.64434      123054.32    
   1687500   296.92475     -53650.731      9487.6009     -33543.1        568.066        123466.14    
   1690000   298.34287     -53687.157      9444.0903     -33572.315      17.759914      123312.54    
   1692500   296.37397     -53686.331      9509.3347     -33576.666     -40.671928      123335.49    
   1695000   303.627       -53646.354      9414.935      -33371.671      954.58451      123686.85    
   1697500   298.58274     -53595.748      9389.1309     -33527.286      515.13233      123694.5     
   1700000   301.12163     -53654.729      9520.5929     -33363.998      442.64675      123710.1     
   1702500   301.92603     -53708.513      9623.8575     -33285.746      160.1953       123125.08    
   1705000   302.40488     -53613.111      9621.2743     -33175.8        275.10871      123360.99    
   1707500   301.3998      -53681.592      9651.6457     -33249.858      487.81114      123586.51    
   1710000   300.3689      -53699.298      9663.9086     -33292.173     -388.37704      123391.15    
   1712500   303.54945     -53703.53       9372.5446     -33474.011      181.1119       122979.52    
   1715000   297.01418     -53732.3        9548.7368     -33560.334     -410.27827      123138.86    
   1717500   299.46444     -53766.75       9520.8397     -33535.044      535.53601      123088.35    
   1720000   301.59551     -53740.146      9603.8416     -33349.217      459.98576      123203.47    
   1722500   302.2659      -53698.352      9460.96       -33426.326      413.11196      123340.82    
   1725000   302.23906     -53690.383      9512.1385     -33368.139      46.273337      123363.38    
   1727500   301.61176     -53679.779      9509.7534     -33382.356     -436.52601      123572.71    
   1730000   295.55626     -53750.426      9469.2365     -33710.105      265.4732       122736.76    
   1732500   304.25934     -53725.507      9620.4495     -33222.693     -831.4272       123407.45    
   1735000   298.33672     -53705.486      9446.7404     -33588.213      401.71364      123080.83    
   1737500   300.14564     -53644.398      9622.7863     -33286.381      621.33015      123551.38    
   1740000   302.32716     -53726.73       9431.5708     -33481.902      1130.8113      123102.39    
   1742500   302.27081     -53734.411      9529.2809     -33393.889     -308.15644      123055.34    
   1745000   299.191       -53744.929      9524.6258     -33519.217      176.89897      123137.97    
   1747500   300.51003     -53806.709      9454.4666     -33603.979      812.23132      122732.67    
   1750000   296.83053     -53736.638      9556.5941     -33563.384     -131.51722      123472.11    
   1752500   300.6457      -53670.523      9495.2754     -33422.131      469.48048      123542.03    
   1755000   300.89175     -53671.454      9504.8556     -33404.682     -139.55928      123285.36    
   1757500   302.84616     -53649.457      9572.3981     -33245.239      259.04326      123250.55    
   1760000   296.37931     -53760.2        9451.0327     -33708.646     -8.6494392      123009.56    
   1762500   298.86632     -53804.176      9424.2188     -33690.483      567.53617      122711.67    
   1765000   300.52938     -53772.375      9473.6828     -33549.735      660.97224      122667.05    
   1767500   298.78558     -53685.228      9578.935      -33419.707      607.50214      123172.2     
   1770000   300.86762     -53731.585      9643.0652     -33327.466     -319.07114      123311       
   1772500   304.08537     -53762.623      9577.066      -33309.415     -471.39634      123299.47    
   1775000   302.72727     -53760.937      9531.8112     -33401.558     -78.731445      122501.35    
   1777500   304.0145      -53769.685      9466.0373     -33430.04       116.01792      123427       
   1780000   296.971       -53759.775      9581.4501     -33556.64      -115.62388      122946.94    
   1782500   304.53546     -53732.864      9608.999      -33231.624      475.13064      123057.72    
   1785000   299.16672     -53758.687      9472.7249     -33585.744     -280.62736      123239.71    
   1787500   301.06525     -53782.148      9525.1206     -33488.905     -327.77105      123016.48    
   1790000   298.53649     -53724.308      9531.0714     -33515.56       1200.5534      123476.68    
   1792500   298.83835     -53725.806      9506.1935     -33531.138      474.84932      122961.19    
   1795000   300.00624     -53730.593      9496.7202     -33503.628      1219.7483      123186.99    
   1797500   300.70442     -53651.882      9479.6204     -33417.045      665.56234      123696.86    
   1800000   300.52921     -53621.661      9463.7465     -33408.965      152.25283      123849.53    
   1802500   298.25629     -53784.369      9494.5676     -33622.146     -198.96901      123220.4     
   1805000   298.82502     -53703.006      9456.3221     -33558.687      65.57646       123530.22    
   1807500   298.76379     -53652.01       9669.6532     -33296.55       139.0495       123701.05    
   1810000   299.78776     -53712.614      9560.7319     -33429.451      932.58995      123222.33    
   1812500   298.17084     -53745.646      9577.3883     -33503.659     -600.76859      123099.67    
   1815000   297.68833     -53711.847      9450.6998     -33613.806      213.30236      123076.3     
   1817500   298.86529     -53707.192      9484.3101     -33533.445      205.83532      123569.37    
   1820000   300.00526     -53683.083      9452.0244     -33500.848     -473.29956      123129.34    
   1822500   299.9985      -53634.192      9468.0105     -33436.213     -942.00797      123839.23    
   1825000   300.30591     -53685.013      9500.8393     -33443.211     -737.37872      123667.02    
   1827500   300.99297     -53762.795      9517.1743     -33480.083     -605.14232      123130.02    
   1830000   301.45228     -53733.541      9515.4072     -33436.169      976.68654      123218.46    
   1832500   299.30541     -53609.453      9456.7918     -33447.483      577.96618      124083.3     
   1835000   297.46553     -53580.423      9550.2251     -33390.826     -305.51571      124287.6     
   1837500   302.43639     -53640.058      9524.8204     -33298.074      202.68642      123513.03    
   1840000   297.12446     -53677.681      9511.629      -33538.879      1038.827       123177.92    
   1842500   297.37035     -53742.373      9522.7423     -33583.663      337.14229      122910.98    
   1845000   295.19167     -53723.094      9609.1545     -33555.896      357.65137      123238.95    
   1847500   302.76381     -53666.884      9536.3953     -33301.615      253.71577      122998.53    
   1850000   298.83531     -53739.615      9570.4919     -33480.758      603.64253      123151.11    
   1852500   301.98164     -53659.069      9541.0823     -33317.088      486.05199      123116.22    
   1855000   301.35443     -53726.895      9395.9519     -33552.477      1230.1729      123167.05    
   1857500   301.28987     -53761.319      9676.9211     -33308.241     -81.773279      123333.64    
   1860000   299.99064     -53730.245      9820.5778     -33179.98       946.62247      123427.01    
   1862500   297.87793     -53726.474      9467.0345     -33605.317      576.59375      123185.48    
   1865000   301.98345     -53790.602      9564.0862     -33425.552     -703.96786      122827.12    
   1867500   301.77987     -53763.087      9489.6586     -33479.746      12.354385      122792.56    
   1870000   300.85446     -53741.621      9483.4911     -33497.547      195.33346      123097.6     
   1872500   293.06166     -53751.813      9555.4819     -33714.471      288.89138      123447.29    
   1875000   295.09874     -53753.978      9607.0491     -33592.209     -5.2570616      122987.26    
   1877500   300.28306     -53734.203      9598.8663     -33395.191     -298.73472      123123.52    
   1880000   301.75488     -53799.298      9610.2136     -33396.296      503.80363      122721.31    
   1882500   300.14933     -53681.587      9355.4687     -33590.756     -206.88157      123340.06    
   1885000   300.44225     -53634.252      9682.3228     -33206.09      -350.35589      123445.68    
   1887500   300.49244     -53693.67       9444.0409     -33501.994      203.62562      123420.08    
   1890000   301.15927     -53723.259      9669.3531     -33282.421      622.53776      123392.96    
   1892500   302.5358      -53757.847      9357.0549     -33580.072     -127.00474      122974.73    
   1895000   302.37081     -53627.733      9652.8922     -33160.023      435.84521      124301.34    
   1897500   298.11438     -53674.338      9430.4382     -33581.32       303.98708      123382.37    
   1900000   300.16717     -53709.812      9548.3115     -33425.5        16.431244      123395.37    
   1902500   299.35489     -53720.15       9581.421      -33431.781     -976.64333      123203.81    
   1905000   296.35512     -53728.99       9527.6468     -33601.686      338.41165      123152.11    
   1907500   299.61828     -53657.86       9478.996      -33462.495     -367.47354      123833.93    
   1910000   304.53455     -53744.389      9533.4258     -33318.755     -281.0154       123430.41    
   1912500   298.02059     -53660.608      9650.7015     -33350.681     -100.9861       123708.79    
   1915000   300.07189     -53701.255      9494.3114     -33474.351      265.25959      123556.04    
   1917500   300.06072     -53751.372      9583.3734     -33435.805     -399.56039      123304.85    
   1920000   299.52846     -53760.739      9661.5099     -33386.073     -2002.0704      122893.38    
   1922500   299.98319     -53818.503      9574.0227     -33515.059      589.81362      122832.39    
   1925000   303.85681     -53816.498      9642.6613     -33305.87       706.64401      123124.26    
   1927500   297.44341     -53787.717      9589.2073     -33559.929      887.86418      123035.76    
   1930000   299.56987     -53787.264      9662.1634     -33410.463      102.18943      123135.74    
   1932500   300.80883     -53726.209      9486.4993     -33480.758      1.3995208      123045.06    
   1935000   297.64125     -53718.561      9588.1955     -33484.708     -486.31833      123305.25    
   1937500   303.60964     -53806.484      9512.7452     -33434.612     -217.44659      123159.9     
   1940000   301.08989     -53771.538      9532.434      -33470.1        1851.1814      122958.29    
   1942500   301.29022     -53765.473      9470.0475     -33519.256     -147.62252      122950.91    
   1945000   296.83974     -53772.658      9585.6328     -33570.035      519.80521      122982.02    
   1947500   301.51377     -53740.808      9450.0626     -33506.581      458.07508      123448.55    
   1950000   299.82187     -53673.464      9400.668      -33549.145     -1027.192       123686.9     
   1952500   301.80647     -53700.76       9449.8118     -33456.315     -323.50716      123432.31    
   1955000   300.06965     -53739.292      9547.935      -33458.844     -851.30747      123238.15    
   1957500   300.15803     -53641.99       9435.3269     -33470.989      984.71373      123384.15    
   1960000   299.81925     -53717.011      9591.2796     -33402.174      376.61957      123514.58    
   1962500   301.74019     -53731.357      9496.4209     -33442.673     -157.92912      123677.94    
   1965000   304.24904     -53695.459      9486.1392     -33327.324      564.57624      123165.53    
   1967500   300.27118     -53729.17       9547.4191     -33442.03      -161.4869       123109.54    
   1970000   301.20779     -53719.386      9470.359      -33475.806      91.240239      123597.33    
   1972500   300.74742     -53699.036      9395.004      -33547.278      392.56175      123366.36    
   1975000   299.83932     -53653.238      9507.1346     -33421.829     -30.122296      123689.49    
   1977500   300.61649     -53746.857      9619.6232     -33375.162      904.68973      123244       
   1980000   302.40726     -53734.851      9694.5493     -33224.18       740.88069      123272.94    
   1982500   301.71082     -53714.946      9517.3981     -33406.336      119.30579      123571.87    
   1985000   298.13348     -53656.034      9538.1545     -33454.617     -1702.1986      123641.61    
   1987500   297.71354     -53697.904      9489.8965     -33559.765     -296.43566      123378.77    
   1990000   299.14882     -53756.895      9533.2295     -33524.087      245.04262      123209.02    
   1992500   298.44782     -53646.378      9496.8204     -33475.052     -285.87432      123756.09    
   1995000   300.00993     -53577.909      9627.7485     -33219.784     -143.82928      124346.72    
   1997500   303.3759      -53644.622      9423.9528     -33369.903     -170.49125      123398.58    
   2000000   296.02403     -53625.789      9590.3992     -33447.575      168.56209      123592.46    
Loop time of 27526 on 8 procs for 2000000 steps with 12000 atoms

Performance: 3.139 ns/day, 7.646 hours/ns, 72.659 timesteps/s, 871.904 katom-step/s
100.0% CPU use with 8 MPI tasks x 1 OpenMP threads

MPI task timing breakdown:
Section |  min time  |  avg time  |  max time  |%varavg| %total
---------------------------------------------------------------
Pair    | 21865      | 22666      | 23522      | 285.8 | 82.34
Bond    | 676.14     | 692.28     | 707.44     |  47.7 |  2.51
Kspace  | 1334.4     | 2182.5     | 2994.8     | 922.8 |  7.93
Neigh   | 914.95     | 915.37     | 915.63     |   0.7 |  3.33
Comm    | 755.65     | 762.38     | 769.8      |  15.4 |  2.77
Output  | 0.035212   | 0.037639   | 0.052673   |   2.9 |  0.00
Modify  | 174.82     | 246.57     | 265.1      | 176.9 |  0.90
Other   |            | 60.59      |            |       |  0.22

Nlocal:           1500 ave        1531 max        1469 min
Histogram: 1 0 0 1 1 3 1 0 0 1
Nghost:        12884.9 ave       12931 max       12855 min
Histogram: 2 1 0 2 0 1 0 1 0 1
Neighs:         836706 ave      875246 max      801850 min
Histogram: 3 0 0 0 0 1 1 2 0 1

Total # of neighbors = 6693647
Ave neighs/atom = 557.80392
Ave special neighs/atom = 8.1666667
Neighbor list builds = 45471
Dangerous builds = 0


write_data   system_equilibrated_aftercooling_stable.data
System init for write_data ...
PPPM initialization ...
  using 12-bit tables for long-range coulomb (src/kspace.cpp:342)
  G vector (1/distance) = 0.19331194
  grid = 15 15 15
  stencil order = 5
  estimated absolute RMS force accuracy = 0.02811399
  estimated relative force accuracy = 8.4664447e-05
  using double precision FFTW3
  3d grid and FFT values/proc = 2197 512
Generated 0 of 2346 mixed pair_coeff terms from geometric mixing rule
WARNING: Not all mixed pair coeffs generated from mixing. Use write_data with 'pair ij' option to store all pair coeffs. (src/write_data.cpp:326)


Total wall time: 7:38:46
