LAMMPS (2 Aug 2023)
OMP_NUM_THREADS environment is not set. Defaulting to 1 thread. (src/comm.cpp:98)
  using 1 OpenMP thread(s) per MPI task
# ------------------------------- Initialization Section --------------------

include         system.in.init
units real
atom_style      full
bond_style      harmonic
angle_style     harmonic
dihedral_style  harmonic
improper_style  harmonic
#pair_style      lj/cut/coul/cut ${cutoff}  # for non-period sims
pair_style      lj/cut/coul/long   12
kspace_style    pppm 0.0001
special_bonds lj 0.0 0.0 0.5 coul 0.0 0.0 1.0 angle yes dihedral yes

# ------------------------------- Atom Definition Section -------------------

read_data       system_equilibrated_aftercooling_stable.data
Reading data file ...
  orthogonal box = (0.0941904 0.0941904 0.0941904) to (49.90581 49.90581 49.90581)
  2 by 2 by 4 MPI processor grid
  reading atoms ...
  12000 atoms
  reading velocities ...
  12000 velocities
  scanning bonds ...
  3 = max bonds/atom
  scanning angles ...
  6 = max angles/atom
  scanning dihedrals ...
  10 = max dihedrals/atom
  scanning impropers ...
  2 = max impropers/atom
  reading bonds ...
  11500 bonds
  reading angles ...
  19500 angles
  reading dihedrals ...
  20500 dihedrals
  reading impropers ...
  2500 impropers
Finding 1-2 1-3 1-4 neighbors ...
  special bond factors lj:    0        0        0.5     
  special bond factors coul:  0        0        1       
     4 = max # of 1-2 neighbors
     7 = max # of 1-3 neighbors
    14 = max # of 1-4 neighbors
  39000 = # of 1-3 neighbors before angle trim
  39000 = # of 1-3 neighbors after angle trim
  56500 = # of 1-4 neighbors before dihedral trim
  41000 = # of 1-4 neighbors after dihedral trim
    15 = max # of special neighbors
  special bonds CPU = 0.003 seconds
  read_data CPU = 0.335 seconds

# ------------------------------- Settings Section --------------------------

include         system.in.settings
#     atom_id      mass
mass 1            15.999400000
mass 2           15.999400000
mass 3           15.999400000
mass 4           15.999400000
mass 5           15.999400000
mass 6            14.006700000
mass 7           14.006700000
mass 8           14.006700000
mass 9           14.006700000
mass 10           14.006700000
mass 11           14.006700000
mass 12            12.011000000
mass 13          12.011000000
mass 14          13.019000000
mass 15          14.027000000
mass 16          15.035000000
mass 17          16.043000000
mass 18         14.027000000
mass 19          12.011000000
mass 20            1.008000000
mass 21             1.008000000
mass 22           1.000000000
mass 23            32.060000000
mass 24         63.546000000
mass 25         63.546000000
mass 26           55.847000000
mass 27         65.370000000
mass 28         24.305000000
mass 29         40.080000000
mass 30           39.948000000
mass 31            18.998400000
mass 32           35.453000000
mass 33           79.904000000
mass 34         12.011000000
mass 35         15.999400000
mass 36          22.989800000
mass 37          35.453000000
mass 38         12.011000000
mass 39        35.453000000
mass 40          1.008000000
mass 41        32.060000000
mass 42        12.011000000
mass 43        15.999400000
mass 44         12.011000000
mass 45        35.453000000
mass 46         18.998400000
mass 47         12.011000000
mass 48        13.019000000
mass 49         15.999400000
mass 50        12.011000000
mass 51        15.999400000
mass 52        14.006700000
mass 53         15.035000000
mass 54            126.904470000
mass 55        35.453000000
mass 56            10.811000000
mass 57           78.960000000
mass 58          1.008000000
mass 59        35.453000000
mass 60        79.904000000
mass 61        15.999400000
mass 62         14.006700000
mass 63         12.011000000
mass 64         12.011000000
mass 65         14.006700000
mass 66         14.006700000
mass 67         15.999400000
mass 68           28.080000000
mass 69            30.973800000

#           atom_i       atom_j       epsilon                  sigma
pair_coeff 1      1      3.057142739336137782E-01 2.760065475311210825E+00
pair_coeff 1      2     3.550276087952778381E-01 2.692123523613648928E+00
pair_coeff 2     2     4.122954462841457168E-01 2.625854035428913935E+00
pair_coeff 1      3     2.204919358198741963E-01 2.914561468303898728E+00
pair_coeff 2     3     1.353372555548385814E-01 3.161567388722811067E+00
pair_coeff 3     3     2.030610329881481768E-01 2.954841833242532800E+00
pair_coeff 1      4     2.779220672123761116E-01 2.804259278747785356E+00
pair_coeff 2     4     3.227523716320707670E-01 2.735229449503375765E+00
pair_coeff 3     4     2.030610329881481768E-01 2.954841833242532800E+00
pair_coeff 4     4     2.526564247385237327E-01 2.849160707521389835E+00
pair_coeff 1      5     1.928839685607480758E-01 3.016736863519489109E+00
pair_coeff 2     5     1.183915722290306144E-01 3.272402037762298210E+00
pair_coeff 3     5     1.776356026680076250E-01 3.058429331874637391E+00
pair_coeff 4     5     1.776356026680076250E-01 3.058429331874637391E+00
pair_coeff 5     5     1.553937103090970162E-01 3.165648283720967182E+00
pair_coeff 1      6      1.694765154967038112E-01 3.064144913095461664E+00
pair_coeff 2     6      9.205677104655286824E-02 3.392227199027124662E+00
pair_coeff 3     6      1.381226695164660401E-01 3.170419479686534814E+00
pair_coeff 4     6      1.381226695164660401E-01 3.170419479686534814E+00
pair_coeff 5     6      1.208282223360083590E-01 3.281564455306036798E+00
pair_coeff 6      6      1.529146624006174071E-01 3.136473222385702364E+00
pair_coeff 1      7     1.295153862773237297E-01 3.204601223054668324E+00
pair_coeff 2     7     7.949613606375653674E-02 3.476187697824344891E+00
pair_coeff 3     7     1.192765986091082336E-01 3.248890049401691016E+00
pair_coeff 4     7     1.192765986091082336E-01 3.248890049401691016E+00
pair_coeff 5     7     1.043418826661619003E-01 3.362785957386363656E+00
pair_coeff 6      7     8.113226830524199185E-02 3.485920696025768706E+00
pair_coeff 7     7     7.006222102981565780E-02 3.572200188298519929E+00
pair_coeff 1      8     9.498357859321329699E-02 3.374577969603924643E+00
pair_coeff 2     8     3.498417334104661491E-02 3.985801065571819457E+00
pair_coeff 3     8     8.747468933197311003E-02 3.421215940224123120E+00
pair_coeff 4     8     8.747468933197311003E-02 3.421215940224123120E+00
pair_coeff 5     8     7.652191525386708992E-02 3.541153054130216749E+00
pair_coeff 6      8     1.529146624006174071E-01 3.136473222385702364E+00
pair_coeff 7     8     5.138200694820247577E-02 3.761674922833770918E+00
pair_coeff 8     8     1.529146624006174071E-01 3.136473222385702364E+00
pair_coeff 1      9     1.582887664986303011E-01 3.099220950402574282E+00
pair_coeff 2     9     9.715714619416199183E-02 3.361876561464794300E+00
pair_coeff 3     9     1.457753106303604218E-01 3.142053380689358466E+00
pair_coeff 4     9     1.457753106303604218E-01 3.142053380689358466E+00
pair_coeff 5     9     1.275226702872701012E-01 3.252203929734818200E+00
pair_coeff 6      9     9.915676463161025855E-02 3.371289499249087385E+00
pair_coeff 7     9     8.562737496854166963E-02 3.454731772227725983E+00
pair_coeff 8     9     6.279712962164887835E-02 3.637975809775669589E+00
pair_coeff 9     9     1.046505125905587974E-01 3.341126193637144581E+00
pair_coeff 1      10     1.356655582513865699E-01 3.179918240687398701E+00
pair_coeff 2     10     4.996808371058240883E-02 3.755883439744826191E+00
pair_coeff 3     10     1.249405711687586185E-01 3.223865938686866883E+00
pair_coeff 4     10     1.249405711687586185E-01 3.223865938686866883E+00
pair_coeff 5     10     1.092966648039405131E-01 3.336884579737899870E+00
pair_coeff 6      10     1.529146624006174071E-01 3.136473222385702364E+00
pair_coeff 7     10     7.338919800609181032E-02 3.544685827501989461E+00
pair_coeff 8     10     1.529146624006174071E-01 3.136473222385702364E+00
pair_coeff 9     10     8.969347936648916497E-02 3.428122195097171421E+00
pair_coeff 10     10     1.529146624006174071E-01 3.136473222385702364E+00
pair_coeff 1      11     1.468798483487794293E-01 3.138102939733744545E+00
pair_coeff 2     11     5.409850998504587422E-02 3.706494309430008460E+00
pair_coeff 3     11     1.352683199952084137E-01 3.181472734127216206E+00
pair_coeff 4     11     1.352683199952084137E-01 3.181472734127216206E+00
pair_coeff 5     11     1.183312681445888304E-01 3.293005202223091565E+00
pair_coeff 6      11     1.529146624006174071E-01 3.136473222385702364E+00
pair_coeff 7     11     7.945564380901472268E-02 3.498073904350435193E+00
pair_coeff 8     11     1.529146624006174071E-01 3.136473222385702364E+00
pair_coeff 9     11     9.710765810444493829E-02 3.383043060841536942E+00
pair_coeff 10     11     1.529146624006174071E-01 3.136473222385702364E+00
pair_coeff 11     11     1.529146624006174071E-01 3.136473222385702364E+00
pair_coeff 1      12      1.423703976828447626E-01 3.143928959384971744E+00
pair_coeff 2     12      1.653354984123153737E-01 3.066537799135407028E+00
pair_coeff 3     12      1.294276342571315797E-01 3.194269134171567437E+00
pair_coeff 4     12      1.294276342571315797E-01 3.194269134171567437E+00
pair_coeff 5     12      1.015029251390483361E-01 3.367009660356621747E+00
pair_coeff 6      12      1.006900148654086141E-01 3.351458328501519368E+00
pair_coeff 7     12      1.006900148654086141E-01 3.351458328501519368E+00
pair_coeff 8     12      1.006900148654086141E-01 3.351458328501519368E+00
pair_coeff 9     12      1.006900148654086141E-01 3.351458328501519368E+00
pair_coeff 10     12      1.006900148654086141E-01 3.351458328501519368E+00
pair_coeff 11     12      1.006900148654086141E-01 3.351458328501519368E+00
pair_coeff 12      12      6.630154972997068241E-02 3.581179283634555510E+00
pair_coeff 1      13    2.260833879260638890E-02 4.280821861878790990E+00
pair_coeff 2     13    2.625518382604388745E-02 4.175444871815595427E+00
pair_coeff 3     13    2.055303526600580841E-02 4.349365815492619802E+00
pair_coeff 4     13    2.055303526600580841E-02 4.349365815492619802E+00
pair_coeff 5     13    1.611860721985387823E-02 4.584571963747981371E+00
pair_coeff 6      13    1.598951752723829639E-02 4.563397031920107594E+00
pair_coeff 7     13    1.598951752723829639E-02 4.563397031920107594E+00
pair_coeff 8     13    1.598951752723829639E-02 4.563397031920107594E+00
pair_coeff 9     13    1.598951752723829639E-02 4.563397031920107594E+00
pair_coeff 10     13    1.598951752723829639E-02 4.563397031920107594E+00
pair_coeff 11     13    1.598951752723829639E-02 4.563397031920107594E+00
pair_coeff 12      13    1.052864867392752299E-02 4.876188605638604123E+00
pair_coeff 13    13    1.671943466637953492E-03 6.639493148644640463E+00
pair_coeff 1      14    8.326657659937299061E-02 3.721998163273249283E+00
pair_coeff 2     14    9.669791731433396986E-02 3.630377213810442427E+00
pair_coeff 3     14    7.569688781761180207E-02 3.781594305716371451E+00
pair_coeff 4     14    7.569688781761180207E-02 3.781594305716371451E+00
pair_coeff 5     14    5.936487660854102705E-02 3.986096356968000354E+00
pair_coeff 6      14    5.888943890049144064E-02 3.967685626525647269E+00
pair_coeff 7     14    5.888943890049144064E-02 3.967685626525647269E+00
pair_coeff 8     14    5.888943890049144064E-02 3.967685626525647269E+00
pair_coeff 9     14    5.888943890049144064E-02 3.967685626525647269E+00
pair_coeff 10     14    5.888943890049144064E-02 3.967685626525647269E+00
pair_coeff 11     14    5.888943890049144064E-02 3.967685626525647269E+00
pair_coeff 12      14    3.877704325548127218E-02 4.239645007324696735E+00
pair_coeff 13    14    6.157772581688245907E-03 5.772765628111153013E+00
pair_coeff 14    14    2.267909407489697785E-02 5.019181773522026546E+00
pair_coeff 1      15    1.731972553779473067E-01 3.351793382524915543E+00
pair_coeff 2     15    2.011348918568659772E-01 3.269285418082499728E+00
pair_coeff 3     15    1.574520503435884455E-01 3.405461854969619839E+00
pair_coeff 4     15    1.574520503435884455E-01 3.405461854969619839E+00
pair_coeff 5     15    1.234809225305322361E-01 3.589623316644059425E+00
pair_coeff 6      15    1.224919962470180784E-01 3.573043790873992709E+00
pair_coeff 7     15    1.224919962470180784E-01 3.573043790873992709E+00
pair_coeff 8     15    1.224919962470180784E-01 3.573043790873992709E+00
pair_coeff 9     15    1.224919962470180784E-01 3.573043790873992709E+00
pair_coeff 10     15    1.224919962470180784E-01 3.573043790873992709E+00
pair_coeff 11     15    1.224919962470180784E-01 3.573043790873992709E+00
pair_coeff 12      15    8.065754277175206377E-02 3.817953007077415251E+00
pair_coeff 13    15    1.280837226587758920E-02 5.198583336794016851E+00
pair_coeff 14    15    4.717327178141728083E-02 4.519953937695086132E+00
pair_coeff 15    15    9.812197803026967424E-02 4.070381293353582564E+00
pair_coeff 1      16    2.517150719017874350E-01 3.216286733597559344E+00
pair_coeff 2     16    2.923180488930291476E-01 3.137114409660223480E+00
pair_coeff 3     16    2.288318835470794788E-01 3.267785491497223305E+00
pair_coeff 4     16    2.288318835470794788E-01 3.267785491497223305E+00
pair_coeff 5     16    1.794601723072659361E-01 3.444501654585188533E+00
pair_coeff 6      16    1.780229229119614787E-01 3.428592407594721170E+00
pair_coeff 7     16    1.780229229119614787E-01 3.428592407594721170E+00
pair_coeff 8     16    1.780229229119614787E-01 3.428592407594721170E+00
pair_coeff 9     16    1.780229229119614787E-01 3.428592407594721170E+00
pair_coeff 10     16    1.780229229119614787E-01 3.428592407594721170E+00
pair_coeff 11     16    1.780229229119614787E-01 3.428592407594721170E+00
pair_coeff 12      16    1.172230999498745652E-01 3.663600408719620116E+00
pair_coeff 13    16    1.861496210673063006E-02 4.988414472922134912E+00
pair_coeff 14    16    6.855895881485152277E-02 4.337220773235620719E+00
pair_coeff 15    16    1.426049200441300291E-01 3.905823498176049124E+00
pair_coeff 16    16    2.072539060975635561E-01 3.747918462531858008E+00
pair_coeff 1      17    3.038575184606040480E-01 3.199953592715625295E+00
pair_coeff 2     17    3.528713488103634721E-01 3.121183326439165739E+00
pair_coeff 3     17    2.762341076914582305E-01 3.251190826523163935E+00
pair_coeff 4     17    2.762341076914582305E-01 3.251190826523163935E+00
pair_coeff 5     17    2.166351113098009262E-01 3.427009578955020341E+00
pair_coeff 6      17    2.149001375898457467E-01 3.411181123260212722E+00
pair_coeff 7     17    2.149001375898457467E-01 3.411181123260212722E+00
pair_coeff 8     17    2.149001375898457467E-01 3.411181123260212722E+00
pair_coeff 9     17    2.149001375898457467E-01 3.411181123260212722E+00
pair_coeff 10     17    2.149001375898457467E-01 3.411181123260212722E+00
pair_coeff 11     17    2.149001375898457467E-01 3.411181123260212722E+00
pair_coeff 12      17    1.415057111515590771E-01 3.644995692608442361E+00
pair_coeff 13    17    2.247102705950117241E-02 4.963082006288297876E+00
pair_coeff 14    17    8.276085709262456791E-02 4.315195237643504100E+00
pair_coeff 15    17    1.721453419435647891E-01 3.885988710192354478E+00
pair_coeff 16    17    2.501862805523388245E-01 3.728885557404626905E+00
pair_coeff 17    17    3.020120399909287934E-01 3.709949306321822071E+00
pair_coeff 1      18   1.871351497334000635E-01 3.303836737441132154E+00
pair_coeff 2     18   2.173210425425619319E-01 3.222509276900889397E+00
pair_coeff 3     18   1.701228633940000401E-01 3.356737334425898833E+00
pair_coeff 4     18   1.701228633940000401E-01 3.356737334425898833E+00
pair_coeff 5     18   1.334179394271841901E-01 3.538263858666045536E+00
pair_coeff 6      18   1.323494301847202848E-01 3.521921548721142159E+00
pair_coeff 7     18   1.323494301847202848E-01 3.521921548721142159E+00
pair_coeff 8     18   1.323494301847202848E-01 3.521921548721142159E+00
pair_coeff 9     18   1.323494301847202848E-01 3.521921548721142159E+00
pair_coeff 10     18   1.323494301847202848E-01 3.521921548721142159E+00
pair_coeff 11     18   1.323494301847202848E-01 3.521921548721142159E+00
pair_coeff 12      18   8.714838644978782634E-02 3.763326663382849269E+00
pair_coeff 13    18   1.383911457826323375E-02 5.124203269895830637E+00
pair_coeff 14    18   5.096949867344095775E-02 4.455283535302380749E+00
pair_coeff 15    18   1.060182565293115581E-01 4.012143267090165999E+00
pair_coeff 16    18   1.540809235512614617E-01 3.849939924851243589E+00
pair_coeff 17    18   1.859985845053877540E-01 3.830388928193292131E+00
pair_coeff 18   18   1.145499809843573136E-01 3.954738496352121491E+00
pair_coeff 1      19    1.916455257379301724E-01 3.213399033460031529E+00
pair_coeff 2     19    2.225589661339335279E-01 3.134297793337560201E+00
pair_coeff 3     19    1.742232052163001366E-01 3.264851553886924496E+00
pair_coeff 4     19    1.742232052163001366E-01 3.264851553886924496E+00
pair_coeff 5     19    1.366336104191038237E-01 3.441409054725308003E+00
pair_coeff 6      19    1.355393477120732659E-01 3.425514091640016634E+00
pair_coeff 7     19    1.355393477120732659E-01 3.425514091640016634E+00
pair_coeff 8     19    1.355393477120732659E-01 3.425514091640016634E+00
pair_coeff 9     19    1.355393477120732659E-01 3.425514091640016634E+00
pair_coeff 10     19    1.355393477120732659E-01 3.425514091640016634E+00
pair_coeff 11     19    1.355393477120732659E-01 3.425514091640016634E+00
pair_coeff 12      19    8.924885764206048899E-02 3.660311093966183371E+00
pair_coeff 13    19    1.417266821800791839E-02 4.983935691534572499E+00
pair_coeff 14    19    5.219797768503835894E-02 4.333326657424202644E+00
pair_coeff 15    19    1.085735338300921060E-01 3.902316706653073286E+00
pair_coeff 16    19    1.577946187139902257E-01 3.744553443938634096E+00
pair_coeff 17    19    1.904815667437584348E-01 3.725537627251366946E+00
pair_coeff 18   19    1.173108919424925706E-01 3.846483307649072980E+00
pair_coeff 19    19    1.201383470349284138E-01 3.741191446582464053E+00
pair_coeff 1      20     9.300420140216696108E-02 2.559445618447809156E+00
pair_coeff 2     20     1.080062726770026210E-01 2.496442138227286112E+00
pair_coeff 3     20     8.454927400196994569E-02 2.600427123263571172E+00
pair_coeff 4     20     8.454927400196994569E-02 2.600427123263571172E+00
pair_coeff 5     20     6.630731279946860957E-02 2.741053705029336207E+00
pair_coeff 6      20     6.577627494299018163E-02 2.728393499060382865E+00
pair_coeff 7     20     6.577627494299018163E-02 2.728393499060382865E+00
pair_coeff 8     20     6.577627494299018163E-02 2.728393499060382865E+00
pair_coeff 9     20     6.577627494299018163E-02 2.728393499060382865E+00
pair_coeff 10     20     6.577627494299018163E-02 2.728393499060382865E+00
pair_coeff 11     20     6.577627494299018163E-02 2.728393499060382865E+00
pair_coeff 12      20     4.331183156556572822E-02 2.915407359639444529E+00
pair_coeff 13    20     6.877894405717501110E-03 3.969663348839890027E+00
pair_coeff 14    20     2.533130481764387168E-02 3.451458661424102736E+00
pair_coeff 15    20     5.268995854924014149E-02 3.108162818448523712E+00
pair_coeff 16    20     7.657659860592054557E-02 2.982505691119483604E+00
pair_coeff 17    20     9.243934043658488808E-02 2.967359751198966222E+00
pair_coeff 18   20     5.693013587912872792E-02 3.063691980262590153E+00
pair_coeff 19    20     5.830227959007599353E-02 2.979827888172235539E+00
pair_coeff 20     20     2.829367882355780447E-02 2.373408142809749322E+00
pair_coeff 1      21      0.000000000000000000E+00 0.000000000000000000E+00
pair_coeff 2     21      0.000000000000000000E+00 0.000000000000000000E+00
pair_coeff 3     21      0.000000000000000000E+00 0.000000000000000000E+00
pair_coeff 4     21      0.000000000000000000E+00 0.000000000000000000E+00
pair_coeff 5     21      0.000000000000000000E+00 0.000000000000000000E+00
pair_coeff 6      21      0.000000000000000000E+00 0.000000000000000000E+00
pair_coeff 7     21      0.000000000000000000E+00 0.000000000000000000E+00
pair_coeff 8     21      0.000000000000000000E+00 0.000000000000000000E+00
pair_coeff 9     21      0.000000000000000000E+00 0.000000000000000000E+00
pair_coeff 10     21      0.000000000000000000E+00 0.000000000000000000E+00
pair_coeff 11     21      0.000000000000000000E+00 0.000000000000000000E+00
pair_coeff 12      21      0.000000000000000000E+00 0.000000000000000000E+00
pair_coeff 13    21      0.000000000000000000E+00 0.000000000000000000E+00
pair_coeff 14    21      0.000000000000000000E+00 0.000000000000000000E+00
pair_coeff 15    21      0.000000000000000000E+00 0.000000000000000000E+00
pair_coeff 16    21      0.000000000000000000E+00 0.000000000000000000E+00
pair_coeff 17    21      0.000000000000000000E+00 0.000000000000000000E+00
pair_coeff 18   21      0.000000000000000000E+00 0.000000000000000000E+00
pair_coeff 19    21      0.000000000000000000E+00 0.000000000000000000E+00
pair_coeff 20     21      0.000000000000000000E+00 0.000000000000000000E+00
pair_coeff 21      21      0.000000000000000000E+00 0.000000000000000000E+00
pair_coeff 1      22    0.000000000000000000E+00 0.000000000000000000E+00
pair_coeff 2     22    0.000000000000000000E+00 0.000000000000000000E+00
pair_coeff 3     22    0.000000000000000000E+00 0.000000000000000000E+00
pair_coeff 4     22    0.000000000000000000E+00 0.000000000000000000E+00
pair_coeff 5     22    0.000000000000000000E+00 0.000000000000000000E+00
pair_coeff 6      22    0.000000000000000000E+00 0.000000000000000000E+00
pair_coeff 7     22    0.000000000000000000E+00 0.000000000000000000E+00
pair_coeff 8     22    0.000000000000000000E+00 0.000000000000000000E+00
pair_coeff 9     22    0.000000000000000000E+00 0.000000000000000000E+00
pair_coeff 10     22    0.000000000000000000E+00 0.000000000000000000E+00
pair_coeff 11     22    0.000000000000000000E+00 0.000000000000000000E+00
pair_coeff 12      22    0.000000000000000000E+00 0.000000000000000000E+00
pair_coeff 13    22    0.000000000000000000E+00 0.000000000000000000E+00
pair_coeff 14    22    0.000000000000000000E+00 0.000000000000000000E+00
pair_coeff 15    22    0.000000000000000000E+00 0.000000000000000000E+00
pair_coeff 16    22    0.000000000000000000E+00 0.000000000000000000E+00
pair_coeff 17    22    0.000000000000000000E+00 0.000000000000000000E+00
pair_coeff 18   22    0.000000000000000000E+00 0.000000000000000000E+00
pair_coeff 19    22    0.000000000000000000E+00 0.000000000000000000E+00
pair_coeff 20     22    0.000000000000000000E+00 0.000000000000000000E+00
pair_coeff 21      22    0.000000000000000000E+00 0.000000000000000000E+00
pair_coeff 22    22    0.000000000000000000E+00 0.000000000000000000E+00
pair_coeff 1      23      3.731714874568097806E-01 3.021498329079459921E+00
pair_coeff 2     23      4.333660288663451210E-01 2.947120929208018492E+00
pair_coeff 3     23      3.392468067789179420E-01 3.069878160802191225E+00
pair_coeff 4     23      3.392468067789179420E-01 3.069878160802191225E+00
pair_coeff 5     23      2.660524812168876263E-01 3.235891839220214727E+00
pair_coeff 6      23      2.639217367579247409E-01 3.220946106087509531E+00
pair_coeff 7     23      2.639217367579247409E-01 3.220946106087509531E+00
pair_coeff 8     23      2.639217367579247409E-01 3.220946106087509531E+00
pair_coeff 9     23      2.639217367579247409E-01 3.220946106087509531E+00
pair_coeff 10     23      2.639217367579247409E-01 3.220946106087509531E+00
pair_coeff 11     23      2.639217367579247409E-01 3.220946106087509531E+00
pair_coeff 12      23      1.737850588051431666E-01 3.441721286142719993E+00
pair_coeff 13    23      2.759696924716207450E-02 4.686300458613273712E+00
pair_coeff 14    23      1.016397168676915763E-01 4.074545090238809841E+00
pair_coeff 15    23      2.114139996840987690E-01 3.669274586167817986E+00
pair_coeff 16    23      3.072571214561132247E-01 3.520932774360979955E+00
pair_coeff 17    23      3.709050306349177539E-01 3.503052561617904459E+00
pair_coeff 18   23      2.284273523866607036E-01 3.616775497184223198E+00
pair_coeff 19    23      2.339329629063890137E-01 3.517771551839822930E+00
pair_coeff 20     23      1.135259918695059600E-01 2.801875799210098883E+00
pair_coeff 21      23      0.000000000000000000E+00 0.000000000000000000E+00
pair_coeff 22    23      0.000000000000000000E+00 0.000000000000000000E+00
pair_coeff 23      23      4.555134350088204109E-01 3.307694050845144673E+00
pair_coeff 1      24   2.223093289799977224E-01 2.528643669394098126E+00
pair_coeff 2     24   8.188055467646591923E-02 2.986646248124879222E+00
pair_coeff 3     24   2.047347528503646874E-01 2.563590501331129090E+00
pair_coeff 4     24   2.047347528503646874E-01 2.563590501331129090E+00
pair_coeff 5     24   1.790997547608397245E-01 2.653461953861128819E+00
pair_coeff 6      24   5.583840364210079787E-01 2.182297559899140094E+00
pair_coeff 7     24   5.583840364210079787E-01 2.182297559899140094E+00
pair_coeff 8     24   5.583840364210079787E-01 2.182297559899140094E+00
pair_coeff 9     24   1.469768559452463708E-01 2.726013321860754957E+00
pair_coeff 10     24   5.583840364210079787E-01 2.182297559899140094E+00
pair_coeff 11     24   5.583840364210079787E-01 2.182297559899140094E+00
pair_coeff 12      24   3.676802214070164498E-01 2.331880049283297840E+00
pair_coeff 13    24   5.838741162631456982E-02 3.175123618634094314E+00
pair_coeff 14    24   2.150410044373349261E-01 2.760639115110234521E+00
pair_coeff 15    24   4.472924585510560935E-01 2.486054939218036886E+00
pair_coeff 16    24   6.500695009260647472E-01 2.385548453460561547E+00
pair_coeff 17    24   7.847305442853571567E-01 2.373434017715752464E+00
pair_coeff 18   24   4.832879194471943474E-01 2.450485069368524726E+00
pair_coeff 19    24   4.949362401301840020E-01 2.383406620605556636E+00
pair_coeff 20     24   2.401890134458197767E-01 1.898363561004745348E+00
pair_coeff 21      24   0.000000000000000000E+00 0.000000000000000000E+00
pair_coeff 22    24   0.000000000000000000E+00 0.000000000000000000E+00
pair_coeff 23      24   9.637380899683938296E-01 2.241072162744267793E+00
pair_coeff 24   24   2.038998270244088307E+00 1.518400541713947227E+00
pair_coeff 1      25   1.222674138853568487E-01 2.793586526663335956E+00
pair_coeff 2     25   4.503330433195999044E-02 3.299577089353393333E+00
pair_coeff 3     25   1.126016118096603430E-01 2.832194971194489597E+00
pair_coeff 4     25   1.126016118096603430E-01 2.832194971194489597E+00
pair_coeff 5     25   9.850267617010251275E-02 2.931482855034457380E+00
pair_coeff 6      25   5.583840364210079787E-01 2.182297559899140094E+00
pair_coeff 7     25   5.583840364210079787E-01 2.182297559899140094E+00
pair_coeff 8     25   5.583840364210079787E-01 2.182297559899140094E+00
pair_coeff 9     25   8.083547442600935717E-02 3.011635913604119530E+00
pair_coeff 10     25   5.583840364210079787E-01 2.182297559899140094E+00
pair_coeff 11     25   5.583840364210079787E-01 2.182297559899140094E+00
pair_coeff 12      25   3.676802214070164498E-01 2.331880049283297840E+00
pair_coeff 13    25   5.838741162631456982E-02 3.175123618634094314E+00
pair_coeff 14    25   2.150410044373349261E-01 2.760639115110234521E+00
pair_coeff 15    25   4.472924585510560935E-01 2.486054939218036886E+00
pair_coeff 16    25   6.500695009260647472E-01 2.385548453460561547E+00
pair_coeff 17    25   7.847305442853571567E-01 2.373434017715752464E+00
pair_coeff 18   25   4.832879194471943474E-01 2.450485069368524726E+00
pair_coeff 19    25   4.949362401301840020E-01 2.383406620605556636E+00
pair_coeff 20     25   2.401890134458197767E-01 1.898363561004745348E+00
pair_coeff 21      25   0.000000000000000000E+00 0.000000000000000000E+00
pair_coeff 22    25   0.000000000000000000E+00 0.000000000000000000E+00
pair_coeff 23      25   9.637380899683938296E-01 2.241072162744267793E+00
pair_coeff 24   25   2.038998270244088307E+00 1.518400541713947227E+00
pair_coeff 25   25   2.038998270244088307E+00 1.518400541713947227E+00
pair_coeff 1      26     0.000000000000000000E+00 0.000000000000000000E+00
pair_coeff 2     26     0.000000000000000000E+00 0.000000000000000000E+00
pair_coeff 3     26     0.000000000000000000E+00 0.000000000000000000E+00
pair_coeff 4     26     0.000000000000000000E+00 0.000000000000000000E+00
pair_coeff 5     26     0.000000000000000000E+00 0.000000000000000000E+00
pair_coeff 6      26     0.000000000000000000E+00 0.000000000000000000E+00
pair_coeff 7     26     0.000000000000000000E+00 0.000000000000000000E+00
pair_coeff 8     26     0.000000000000000000E+00 0.000000000000000000E+00
pair_coeff 9     26     0.000000000000000000E+00 0.000000000000000000E+00
pair_coeff 10     26     0.000000000000000000E+00 0.000000000000000000E+00
pair_coeff 11     26     0.000000000000000000E+00 0.000000000000000000E+00
pair_coeff 12      26     0.000000000000000000E+00 0.000000000000000000E+00
pair_coeff 13    26     0.000000000000000000E+00 0.000000000000000000E+00
pair_coeff 14    26     0.000000000000000000E+00 0.000000000000000000E+00
pair_coeff 15    26     0.000000000000000000E+00 0.000000000000000000E+00
pair_coeff 16    26     0.000000000000000000E+00 0.000000000000000000E+00
pair_coeff 17    26     0.000000000000000000E+00 0.000000000000000000E+00
pair_coeff 18   26     0.000000000000000000E+00 0.000000000000000000E+00
pair_coeff 19    26     0.000000000000000000E+00 0.000000000000000000E+00
pair_coeff 20     26     0.000000000000000000E+00 0.000000000000000000E+00
pair_coeff 21      26     0.000000000000000000E+00 0.000000000000000000E+00
pair_coeff 22    26     0.000000000000000000E+00 0.000000000000000000E+00
pair_coeff 23      26     0.000000000000000000E+00 0.000000000000000000E+00
pair_coeff 24   26     0.000000000000000000E+00 0.000000000000000000E+00
pair_coeff 25   26     0.000000000000000000E+00 0.000000000000000000E+00
pair_coeff 26     26     0.000000000000000000E+00 0.000000000000000000E+00
pair_coeff 1      27   5.148167869545027253E-01 2.198391984374735042E+00
pair_coeff 2     27   1.896163524310913173E-01 2.596577466216851260E+00
pair_coeff 3     27   4.741181493550025716E-01 2.228774610499382636E+00
pair_coeff 4     27   4.741181493550025716E-01 2.228774610499382636E+00
pair_coeff 5     27   4.147534460805777923E-01 2.306908466707524141E+00
pair_coeff 6      27   4.114317946416216065E-01 2.296253463382908144E+00
pair_coeff 7     27   4.114317946416216065E-01 2.296253463382908144E+00
pair_coeff 8     27   4.114317946416216065E-01 2.296253463382908144E+00
pair_coeff 9     27   3.403642711782671748E-01 2.369984315549452436E+00
pair_coeff 10     27   4.114317946416216065E-01 2.296253463382908144E+00
pair_coeff 11     27   4.114317946416216065E-01 2.296253463382908144E+00
pair_coeff 12      27   2.709162932331031781E-01 2.453646898458591963E+00
pair_coeff 13    27   4.302135444964862165E-02 3.340923226938115054E+00
pair_coeff 14    27   1.584477717956855047E-01 2.904795040652100369E+00
pair_coeff 15    27   3.295766478763905716E-01 2.615872541507785698E+00
pair_coeff 16    27   4.789880153488779158E-01 2.510117776321816319E+00
pair_coeff 17    27   5.782097536577677221E-01 2.497370745143705939E+00
pair_coeff 18   27   3.560990341007065352E-01 2.578445272956105150E+00
pair_coeff 19    27   3.646818179386565606E-01 2.507864100562072096E+00
pair_coeff 20     27   1.769774750163259913E-01 1.997492909224773072E+00
pair_coeff 21      27   0.000000000000000000E+00 0.000000000000000000E+00
pair_coeff 22    27   0.000000000000000000E+00 0.000000000000000000E+00
pair_coeff 23      27   7.101071414248384395E-01 2.358097177009347067E+00
pair_coeff 24   27   1.502386642309327724E+00 1.597688860942628741E+00
pair_coeff 25   27   1.502386642309327724E+00 1.597688860942628741E+00
pair_coeff 26     27   0.000000000000000000E+00 0.000000000000000000E+00
pair_coeff 27   27   1.106997321149905122E+00 1.681117482676084629E+00
pair_coeff 1      28   1.337556733810085774E-01 2.357481108494590138E+00
pair_coeff 2     28   4.926463850082780926E-02 2.784481733402069281E+00
pair_coeff 3     28   1.231816714918823885E-01 2.390062407746226469E+00
pair_coeff 4     28   1.231816714918823885E-01 2.390062407746226469E+00
pair_coeff 5     28   1.077579983274792180E-01 2.473850508891853206E+00
pair_coeff 6      28   1.068949928152020112E-01 2.462424444192170547E+00
pair_coeff 7     28   1.068949928152020112E-01 2.462424444192170547E+00
pair_coeff 8     28   1.068949928152020112E-01 2.462424444192170547E+00
pair_coeff 9     28   8.843078438758973647E-02 2.541490912925349122E+00
pair_coeff 10     28   1.068949928152020112E-01 2.462424444192170547E+00
pair_coeff 11     28   1.068949928152020112E-01 2.462424444192170547E+00
pair_coeff 12      28   7.038735361689542336E-02 2.631207833337182223E+00
pair_coeff 13    28   1.117747202498341370E-02 3.582692917558796708E+00
pair_coeff 14    28   4.116666151782900213E-02 3.115003821456256539E+00
pair_coeff 15    28   8.562802842568927042E-02 2.805173118654866293E+00
pair_coeff 16    28   1.244469220077783211E-01 2.691765290191502125E+00
pair_coeff 17    28   1.502259384614757498E-01 2.678095805674920893E+00
pair_coeff 18   28   9.251886749504166507E-02 2.765037383453741171E+00
pair_coeff 19    28   9.474877930215237776E-02 2.689348524634663118E+00
pair_coeff 20     28   4.598090416614816073E-02 2.142043744391038285E+00
pair_coeff 21      28   0.000000000000000000E+00 0.000000000000000000E+00
pair_coeff 22    28   0.000000000000000000E+00 0.000000000000000000E+00
pair_coeff 23      28   1.844944867392919463E-01 2.528743548150760745E+00
pair_coeff 24   28   3.903383535907812840E-01 1.713307423651182493E+00
pair_coeff 25   28   3.903383535907812840E-01 1.713307423651182493E+00
pair_coeff 26     28   0.000000000000000000E+00 0.000000000000000000E+00
pair_coeff 27   28   2.876113908353647441E-01 1.802773452022052636E+00
pair_coeff 28   28   7.472494337414144205E-02 1.933233193281657103E+00
pair_coeff 1      29   1.703146428752259911E-01 2.843803441534021204E+00
pair_coeff 2     29   6.272996950749848422E-02 3.358889582531555007E+00
pair_coeff 3     29   1.568504861035088516E-01 2.883105903219756350E+00
pair_coeff 4     29   1.568504861035088516E-01 2.883105903219756350E+00
pair_coeff 5     29   1.372111144012202466E-01 2.984178564858046556E+00
pair_coeff 6      29   1.361122266164445094E-01 2.970395429120896935E+00
pair_coeff 7     29   1.361122266164445094E-01 2.970395429120896935E+00
pair_coeff 8     29   1.361122266164445094E-01 2.970395429120896935E+00
pair_coeff 9     29   1.126012608021971506E-01 3.065772437692955599E+00
pair_coeff 10     29   1.361122266164445094E-01 2.970395429120896935E+00
pair_coeff 11     29   1.361122266164445094E-01 2.970395429120896935E+00
pair_coeff 12      29   8.962608232733035307E-02 3.173996968575379718E+00
pair_coeff 13    29   1.423257128510838597E-02 4.321762924080988277E+00
pair_coeff 14    29   5.241860085293292143E-02 3.757594729361648955E+00
pair_coeff 15    29   1.090324373747397629E-01 3.383849372190097071E+00
pair_coeff 16    29   1.584615631091823018E-01 3.247046760402909182E+00
pair_coeff 17    29   1.912866677944946026E-01 3.230557412101377146E+00
pair_coeff 18   29   1.178067253398141917E-01 3.335434077797200025E+00
pair_coeff 19    29   1.206461311270324160E-01 3.244131442785662678E+00
pair_coeff 20     29   5.854870357409030363E-02 2.583923727009426852E+00
pair_coeff 21      29   0.000000000000000000E+00 0.000000000000000000E+00
pair_coeff 22    29   0.000000000000000000E+00 0.000000000000000000E+00
pair_coeff 23      29   2.349217182881164212E-01 3.050395432258705242E+00
pair_coeff 24   29   4.970281679412999476E-01 2.066743835286263042E+00
pair_coeff 25   29   4.970281679412999476E-01 2.066743835286263042E+00
pair_coeff 26     29   0.000000000000000000E+00 0.000000000000000000E+00
pair_coeff 27   29   3.662232044351344529E-01 2.174665717868782711E+00
pair_coeff 28   29   9.514925029300028148E-02 2.332037863859216742E+00
pair_coeff 29   29   1.211560614504652439E-01 2.813111536348800179E+00
pair_coeff 1      30     2.698242160009388657E-01 3.067797545829641592E+00
pair_coeff 2     30     3.133482940435941000E-01 2.992280441419951309E+00
pair_coeff 3     30     2.452947418190353224E-01 3.116918714488987607E+00
pair_coeff 4     30     2.452947418190353224E-01 3.116918714488987607E+00
pair_coeff 5     30     1.923710802470132430E-01 3.285476264338809127E+00
pair_coeff 6      30     1.908304307803131428E-01 3.270301513790756509E+00
pair_coeff 7     30     1.908304307803131428E-01 3.270301513790756509E+00
pair_coeff 8     30     1.908304307803131428E-01 3.270301513790756509E+00
pair_coeff 9     30     1.908304307803131428E-01 3.270301513790756509E+00
pair_coeff 10     30     1.908304307803131428E-01 3.270301513790756509E+00
pair_coeff 11     30     1.908304307803131428E-01 3.270301513790756509E+00
pair_coeff 12      30     1.256564845410435005E-01 3.494459690227617266E+00
pair_coeff 13    30     1.995417881967565324E-02 4.758109878000214898E+00
pair_coeff 14    30     7.349129780864194217E-02 4.136980420576664486E+00
pair_coeff 15    30     1.528643495920544437E-01 3.725499849556486165E+00
pair_coeff 16    30     2.221643793651205678E-01 3.574884956996347896E+00
pair_coeff 17    30     2.681854387748578428E-01 3.556730761031980492E+00
pair_coeff 18   30     1.651659715241092508E-01 3.672196303169541487E+00
pair_coeff 19    30     1.691468411565035523E-01 3.571675294227750541E+00
pair_coeff 20     30     8.208575087201354370E-02 2.844809681941795620E+00
pair_coeff 21      30     0.000000000000000000E+00 0.000000000000000000E+00
pair_coeff 22    30     0.000000000000000000E+00 0.000000000000000000E+00
pair_coeff 23      30     3.293621287006147091E-01 3.358378720212484847E+00
pair_coeff 24   30     6.968374682861073754E-01 2.275412703269175108E+00
pair_coeff 25   30     6.968374682861073754E-01 2.275412703269175108E+00
pair_coeff 26     30     0.000000000000000000E+00 0.000000000000000000E+00
pair_coeff 27   30     5.134478628509925313E-01 2.394230922729341682E+00
pair_coeff 28   30     1.334000102210023686E-01 2.567492153276457856E+00
pair_coeff 29   30     1.698617675500217472E-01 3.097137446951440776E+00
pair_coeff 30     30     2.381475572067369983E-01 3.409840044152281813E+00
pair_coeff 1      31      1.825200170718821457E-01 2.848641691863192271E+00
pair_coeff 2     31      2.119614644894694810E-01 2.778519342243783719E+00
pair_coeff 3     31      1.057395499456308119E-01 3.119966996841143647E+00
pair_coeff 4     31      1.659272882471655997E-01 2.894253765967063963E+00
pair_coeff 5     31      9.249981842420902656E-02 3.229343266454477224E+00
pair_coeff 6      31      7.192433081344887236E-02 3.347591749745056244E+00
pair_coeff 7     31      6.211065545356941192E-02 3.430447483334676306E+00
pair_coeff 8     31      4.555051328896060625E-02 3.612403446600987778E+00
pair_coeff 9     31      7.590927472598106573E-02 3.317640470558243848E+00
pair_coeff 10     31      6.506004412035899798E-02 3.404024952464428821E+00
pair_coeff 11     31      7.043799131579189798E-02 3.359262692221449242E+00
pair_coeff 12      31      8.499913033581890653E-02 3.244824150032262100E+00
pair_coeff 13    31      1.349781392048931411E-02 4.418202300006069727E+00
pair_coeff 14    31      4.971248737222838665E-02 3.841444791719262675E+00
pair_coeff 15    31      1.034036311148842646E-01 3.459359372949309286E+00
pair_coeff 16    31      1.502809752047785663E-01 3.319504035055336644E+00
pair_coeff 17    31      1.814114818495274339E-01 3.302646729860391872E+00
pair_coeff 18   31      1.117249459261637351E-01 3.409863699817805127E+00
pair_coeff 19    31      1.144177672156473091E-01 3.316523662640645131E+00
pair_coeff 20     31      5.552612316481649046E-02 2.641583528356301613E+00
pair_coeff 21      31      0.000000000000000000E+00 0.000000000000000000E+00
pair_coeff 22    31      0.000000000000000000E+00 0.000000000000000000E+00
pair_coeff 23      31      2.227938701879095817E-01 3.118464467275081642E+00
pair_coeff 24   31      1.066111026131294215E-01 2.706851401515291577E+00
pair_coeff 25   31      5.863480344158913254E-02 2.990466271099721407E+00
pair_coeff 26     31      0.000000000000000000E+00 0.000000000000000000E+00
pair_coeff 27   31      2.468865591596759723E-01 2.353325024008075417E+00
pair_coeff 28   31      6.414413594489304371E-02 2.523626052896363436E+00
pair_coeff 29   31      8.167642784672754508E-02 3.044222254215389167E+00
pair_coeff 30     31      1.610926433928725754E-01 3.166249521765611696E+00
pair_coeff 31      31      1.089695819670959825E-01 2.940060502624928240E+00
pair_coeff 1      32     3.028875918701723902E-01 3.094659625059138719E+00
pair_coeff 2     32     3.517449679133345941E-01 3.018481281955716966E+00
pair_coeff 3     32     2.468521531134249269E-01 3.201992541656678348E+00
pair_coeff 4     32     2.753523562456112184E-01 3.144210905779225573E+00
pair_coeff 5     32     2.159436024870309834E-01 3.314244369926244271E+00
pair_coeff 6      32     1.679095090878598429E-01 3.435601666955987898E+00
pair_coeff 7     32     1.449991894034274031E-01 3.520635720603371155E+00
pair_coeff 8     32     1.063390404686152813E-01 3.707375400182857383E+00
pair_coeff 9     32     1.772124802594848836E-01 3.404862953159864425E+00
pair_coeff 10     32     1.518846257717465786E-01 3.493518527740791413E+00
pair_coeff 11     32     1.644396049182014208E-01 3.447579444541888805E+00
pair_coeff 12      32     1.410540186851716171E-01 3.525057684932574986E+00
pair_coeff 13    32     2.239929855079176788E-02 4.799772576602748586E+00
pair_coeff 14    32     8.249668078937649751E-02 4.173204419770964790E+00
pair_coeff 15    32     1.715958464253498628E-01 3.758120865328633986E+00
pair_coeff 16    32     2.493876749186909880E-01 3.606187166974876845E+00
pair_coeff 17    32     3.010480042491057717E-01 3.587874010243685685E+00
pair_coeff 18   32     1.854048688263800759E-01 3.704350585376364968E+00
pair_coeff 19    32     1.898735411878733903E-01 3.602949399934630925E+00
pair_coeff 20     32     9.214426998795607893E-02 2.869719247168172060E+00
pair_coeff 21      32     0.000000000000000000E+00 0.000000000000000000E+00
pair_coeff 22    32     0.000000000000000000E+00 0.000000000000000000E+00
pair_coeff 23      32     3.697210854307304562E-01 3.387785170252723521E+00
pair_coeff 24   32     2.488868189752940496E-01 2.778015923822349631E+00
pair_coeff 25   32     1.368847085539993957E-01 3.069087174906648396E+00
pair_coeff 26     32     0.000000000000000000E+00 0.000000000000000000E+00
pair_coeff 27   32     5.763640826414281326E-01 2.415195155140145822E+00
pair_coeff 28   32     1.497464106452001675E-01 2.589973486093279487E+00
pair_coeff 29   32     1.906760723205734864E-01 3.124256430600719447E+00
pair_coeff 30     32     2.673293790349109966E-01 3.439697096991523484E+00
pair_coeff 31      32     1.808324084043584357E-01 3.193973660742658982E+00
pair_coeff 32     32     3.000870457518571288E-01 3.469815582505817453E+00
pair_coeff 1      33     4.619134934213758870E-01 3.174341374980300667E+00
pair_coeff 2     33     5.364225913614864005E-01 3.096201580725539859E+00
pair_coeff 3     33     3.764576148503470665E-01 3.284437915256962270E+00
pair_coeff 4     33     4.199213576557962457E-01 3.225168509344078061E+00
pair_coeff 5     33     3.293210632726623621E-01 3.399580020064839836E+00
pair_coeff 6      33     2.560674983169540231E-01 3.524062042578035125E+00
pair_coeff 7     33     2.211285107688185092E-01 3.611285565510714335E+00
pair_coeff 8     33     1.621705180019040737E-01 3.802833445749207453E+00
pair_coeff 9     33     2.702548339108319375E-01 3.492531863870627973E+00
pair_coeff 10     33     2.316290266433154443E-01 3.583470155189018680E+00
pair_coeff 11     33     2.507757808618153450E-01 3.536348225738003670E+00
pair_coeff 12      33     2.151119962679723108E-01 3.615821387226038297E+00
pair_coeff 13    33     3.415966358971698341E-02 4.923357824889950329E+00
pair_coeff 14    33     1.258101389489161837E-01 4.280656699257024300E+00
pair_coeff 15    33     2.616892834385430300E-01 3.854885512574417916E+00
pair_coeff 16    33     3.803243686103310317E-01 3.699039803071263677E+00
pair_coeff 17    33     4.591080620755257913E-01 3.680255116494558720E+00
pair_coeff 18   33     2.827484946746637862E-01 3.799730747567426459E+00
pair_coeff 19    33     2.895633663196458540E-01 3.695718669530379863E+00
pair_coeff 20     33     1.405230283158743487E-01 2.943609199247290142E+00
pair_coeff 21      33     0.000000000000000000E+00 0.000000000000000000E+00
pair_coeff 22    33     0.000000000000000000E+00 0.000000000000000000E+00
pair_coeff 23      33     5.638367590708479593E-01 3.475014359704387434E+00
pair_coeff 24   33     3.795605468998184961E-01 2.849544685281790724E+00
pair_coeff 25   33     2.087536618246373654E-01 3.148110481630561619E+00
pair_coeff 26     33     0.000000000000000000E+00 0.000000000000000000E+00
pair_coeff 27   33     8.789740948174059598E-01 2.477381954232469763E+00
pair_coeff 28   33     2.283681785752544047E-01 2.656660503285802832E+00
pair_coeff 29   33     2.907872525699738975E-01 3.204700243411942928E+00
pair_coeff 30     33     4.076860547562866088E-01 3.528262922346804054E+00
pair_coeff 31      33     2.757753428396018114E-01 3.276212563021035251E+00
pair_coeff 32     33     4.576425689077261438E-01 3.559156903043612541E+00
pair_coeff 33     33     6.979198997135206417E-01 3.650798597006346569E+00
pair_coeff 1      34   2.726298193589453134E-01 3.152721713066568121E+00
pair_coeff 2     34   3.166064561130476629E-01 3.075114109819085950E+00
pair_coeff 3     34   2.478452903263138885E-01 3.203202676262477233E+00
pair_coeff 4     34   2.478452903263138885E-01 3.203202676262477233E+00
pair_coeff 5     34   1.943713341779741421E-01 3.376426312885838499E+00
pair_coeff 6      34   1.928146652027906693E-01 3.360831487989961452E+00
pair_coeff 7     34   1.928146652027906693E-01 3.360831487989961452E+00
pair_coeff 8     34   1.928146652027906693E-01 3.360831487989961452E+00
pair_coeff 9     34   1.928146652027906693E-01 3.360831487989961452E+00
pair_coeff 10     34   1.928146652027906693E-01 3.360831487989961452E+00
pair_coeff 11     34   1.928146652027906693E-01 3.360831487989961452E+00
pair_coeff 12      34   1.269630472365963769E-01 3.591194913038851411E+00
pair_coeff 13    34   2.016166023825427880E-02 4.889826040157090326E+00
pair_coeff 14    34   7.425545246819055534E-02 4.251502194534839241E+00
pair_coeff 15    34   1.544538167603142498E-01 3.828630831160853454E+00
pair_coeff 16    34   2.244744208358758208E-01 3.673846548628572073E+00
pair_coeff 17    34   2.709740023024271305E-01 3.655189799952984320E+00
pair_coeff 18   34   1.668833496423683671E-01 3.773851711754483418E+00
pair_coeff 19    34   1.709056119317078348E-01 3.670548034515104696E+00
pair_coeff 20     34   8.293926973590307061E-02 2.923560997691061925E+00
pair_coeff 21      34   0.000000000000000000E+00 0.000000000000000000E+00
pair_coeff 22    34   0.000000000000000000E+00 0.000000000000000000E+00
pair_coeff 23      34   3.327868009112045500E-01 3.451346887707100741E+00
pair_coeff 24   34   7.040831098003642596E-01 2.338401712830169732E+00
pair_coeff 25   34   7.040831098003642596E-01 2.338401712830169732E+00
pair_coeff 26     34   0.000000000000000000E+00 0.000000000000000000E+00
pair_coeff 27   34   5.187866388494037917E-01 2.460509112293086442E+00
pair_coeff 28   34   1.347870892689141398E-01 2.638566639042558393E+00
pair_coeff 29   34   1.716279720534513720E-01 3.182873814678249147E+00
pair_coeff 30     34   2.406237900523386375E-01 3.504232787426495133E+00
pair_coeff 31      34   1.627676674805978718E-01 3.253899081387234382E+00
pair_coeff 32     34   2.701090413448035132E-01 3.534916356784718605E+00
pair_coeff 33     34   4.119251307784054794E-01 3.625933901607006682E+00
pair_coeff 34   34   2.431257705023985027E-01 3.601238553560273559E+00
pair_coeff 1      35   1.774056427875315700E-01 3.022113465134438570E+00
pair_coeff 2     35   1.088910246333028992E-01 3.278234300527326894E+00
pair_coeff 3     35   1.633809098206280841E-01 3.063880240200058669E+00
pair_coeff 4     35   1.633809098206280841E-01 3.063880240200058669E+00
pair_coeff 5     35   1.429238586712428538E-01 3.171290283817308264E+00
pair_coeff 6      35   1.111321413093139809E-01 3.287413047857584036E+00
pair_coeff 7     35   9.596877802844315519E-02 3.368779307561466041E+00
pair_coeff 8     35   7.038127462972523785E-02 3.547464300384358893E+00
pair_coeff 9     35   1.172893810776735740E-01 3.258000194272241412E+00
pair_coeff 10     35   1.005259546387323316E-01 3.342831766990879583E+00
pair_coeff 11     35   1.088355597600791647E-01 3.298874185130554082E+00
pair_coeff 12      35   9.335763782481623640E-02 3.373010538257620983E+00
pair_coeff 13    35   1.482514019187304057E-02 4.592742851080654276E+00
pair_coeff 14    35   5.460103383565441393E-02 3.993200606718578349E+00
pair_coeff 15    35   1.135719707396375816E-01 3.596020949382504384E+00
pair_coeff 16    35   1.650590635421556873E-01 3.450640643166755339E+00
pair_coeff 17    35   1.992508317774452642E-01 3.433117392155260461E+00
pair_coeff 18   35   1.227115735956721548E-01 3.544569955630175073E+00
pair_coeff 19    35   1.256691972052001172E-01 3.447542531497872709E+00
pair_coeff 20     35   6.098636157519143897E-02 2.745938968293540228E+00
pair_coeff 21      35   0.000000000000000000E+00 0.000000000000000000E+00
pair_coeff 22    35   0.000000000000000000E+00 0.000000000000000000E+00
pair_coeff 23      35   2.447026147257768958E-01 3.241659031413521852E+00
pair_coeff 24   35   1.647275683589491391E-01 2.658191106078167110E+00
pair_coeff 25   35   9.059814930521523091E-02 2.936707512061449421E+00
pair_coeff 26     35   0.000000000000000000E+00 0.000000000000000000E+00
pair_coeff 27   35   3.814707995138282293E-01 2.311019971405739337E+00
pair_coeff 28   35   9.911076125937028081E-02 2.478259547281012942E+00
pair_coeff 29   35   1.262003583272166274E-01 2.989497139204101650E+00
pair_coeff 30     35   1.769339121317631824E-01 3.291331828740973631E+00
pair_coeff 31      35   8.507700182510755105E-02 3.235098787405478848E+00
pair_coeff 32     35   1.986148143410966516E-01 3.320151206497628849E+00
pair_coeff 33     35   3.028940940468037857E-01 3.405638946730622507E+00
pair_coeff 34   35   1.787736520386526418E-01 3.382443973685540506E+00
pair_coeff 35   35   1.314546730163348442E-01 3.176942339410103067E+00
pair_coeff 1      36    3.493138043396110115E-02 2.995467182793318806E+00
pair_coeff 2     36    1.286586045970535865E-02 3.538023538529870837E+00
pair_coeff 3     36    3.216989396118666994E-02 3.036865695947625898E+00
pair_coeff 4     36    3.216989396118666994E-02 3.036865695947625898E+00
pair_coeff 5     36    2.814187644704253116E-02 3.143328694266439349E+00
pair_coeff 6      36    2.791649554839393046E-02 3.128810485949500286E+00
pair_coeff 7     36    2.791649554839393046E-02 3.128810485949500286E+00
pair_coeff 8     36    2.791649554839393046E-02 3.128810485949500286E+00
pair_coeff 9     36    2.309441755578705083E-02 3.229274074606136136E+00
pair_coeff 10     36    2.791649554839393046E-02 3.128810485949500286E+00
pair_coeff 11     36    2.791649554839393046E-02 3.128810485949500286E+00
pair_coeff 12      36    1.838222906573640236E-02 3.343270360670348218E+00
pair_coeff 13    36    2.919087599988792053E-03 4.552248169414355949E+00
pair_coeff 14    36    1.075100800082823098E-02 3.957992150107363383E+00
pair_coeff 15    36    2.236245507304574984E-02 3.564314466278117433E+00
pair_coeff 16    36    3.250032440946476475E-02 3.420215993034873669E+00
pair_coeff 17    36    3.923272392714612089E-02 3.402847246312967755E+00
pair_coeff 18   36    2.416205366169842800E-02 3.513317121179974301E+00
pair_coeff 19    36    2.474441324091778208E-02 3.417145197732238238E+00
pair_coeff 20     36    1.200828656852534135E-02 2.721727744630110912E+00
pair_coeff 21      36    0.000000000000000000E+00 0.000000000000000000E+00
pair_coeff 22    36    0.000000000000000000E+00 0.000000000000000000E+00
pair_coeff 23      36    4.818223363057468761E-02 3.213076993445320717E+00
pair_coeff 24   36    1.019400312718368312E-01 2.176965975714864943E+00
pair_coeff 25   36    1.019400312718368312E-01 2.176965975714864943E+00
pair_coeff 26     36    0.000000000000000000E+00 0.000000000000000000E+00
pair_coeff 27   36    7.511205062526553344E-02 2.290643472851174423E+00
pair_coeff 28   36    1.951502585967282086E-02 2.456408480346143008E+00
pair_coeff 29   36    2.484899949270408595E-02 2.963138438331942570E+00
pair_coeff 30     36    3.483849611111720229E-02 3.262311820657642247E+00
pair_coeff 31      36    1.675176206482257082E-02 3.206574591777111127E+00
pair_coeff 32     36    3.910749134331937410E-02 3.290877095024250742E+00
pair_coeff 33     36    5.964020458481446990E-02 3.375611081141380421E+00
pair_coeff 34   36    3.520074306999246977E-02 3.352620620536940876E+00
pair_coeff 35   36    2.588358025598428910E-02 3.148930915109191542E+00
pair_coeff 36    36    5.096507499468877836E-03 3.121166470390387637E+00
pair_coeff 1      37    2.226461306623754022E-01 3.362204455973978323E+00
pair_coeff 2     37    2.585601331580250628E-01 3.279440211868734245E+00
pair_coeff 3     37    1.814556892113898812E-01 3.478816702288478169E+00
pair_coeff 4     37    2.024055733294321535E-01 3.416039629150127599E+00
pair_coeff 5     37    1.587354808368636461E-01 3.600773118478173718E+00
pair_coeff 6      37    1.234266556414602978E-01 3.732622205057627429E+00
pair_coeff 7     37    1.065857741828254851E-01 3.825007768809989717E+00
pair_coeff 8     37    7.816753321752194228E-02 4.027891788010422580E+00
pair_coeff 9     37    1.302650689360985159E-01 3.699226015163477044E+00
pair_coeff 10     37    1.116471098283786517E-01 3.795546193799352430E+00
pair_coeff 11     37    1.208760039875793058E-01 3.745635506050692953E+00
pair_coeff 12      37    1.036857643481583074E-01 3.829812028396864854E+00
pair_coeff 13    37    1.646524085418059336E-02 5.214730762000061581E+00
pair_coeff 14    37    6.064152927768903800E-02 4.533993458352017392E+00
pair_coeff 15    37    1.261364026450952358E-01 4.083024387295987268E+00
pair_coeff 16    37    1.833194965587523484E-01 3.917955455811204413E+00
pair_coeff 17    37    2.212938895114058557E-01 3.898059058590013226E+00
pair_coeff 18   37    1.362871169309986807E-01 4.024605466717271263E+00
pair_coeff 19    37    1.395719415233208360E-01 3.914437771771909880E+00
pair_coeff 20     37    6.773326384502838249E-02 3.117817146058102118E+00
pair_coeff 21      37    0.000000000000000000E+00 0.000000000000000000E+00
pair_coeff 22    37    0.000000000000000000E+00 0.000000000000000000E+00
pair_coeff 23      37    2.717739891131936147E-01 3.680671794426697563E+00
pair_coeff 24   37    1.829513281662208113E-01 3.018185729444698318E+00
pair_coeff 25   37    1.006209944693221142E-01 3.334421172424263169E+00
pair_coeff 26     37    0.000000000000000000E+00 0.000000000000000000E+00
pair_coeff 27   37    4.236727957739777617E-01 2.623997756297280493E+00
pair_coeff 28   37    1.100753540442943462E-01 2.813886323808834078E+00
pair_coeff 29   37    1.401618648355585917E-01 3.394360015399224828E+00
pair_coeff 30     37    1.965080559655630332E-01 3.737071700247052153E+00
pair_coeff 31      37    1.329259999757477217E-01 3.470104559304247438E+00
pair_coeff 32     37    2.205875096632962662E-01 3.769794040818323477E+00
pair_coeff 33     37    3.364031737469428962E-01 3.866859250698725603E+00
pair_coeff 34   37    1.985513257278677390E-01 3.840523019086392154E+00
pair_coeff 35   37    1.459974627294264860E-01 3.607190623033505794E+00
pair_coeff 36    37    2.874707271347901050E-02 3.575385655778474892E+00
pair_coeff 37    37    1.621491167589119986E-01 4.095706752209074430E+00
pair_coeff 1      38   1.763627633860331279E-01 3.063392634298282680E+00
pair_coeff 2     38   2.048110131065301875E-01 2.987983961478049899E+00
pair_coeff 3     38   1.603297848963937400E-01 3.112443272096635738E+00
pair_coeff 4     38   1.603297848963937400E-01 3.112443272096635738E+00
pair_coeff 5     38   1.257377703556508686E-01 3.280758797795926274E+00
pair_coeff 6      38   1.247307695705341529E-01 3.265605835984801697E+00
pair_coeff 7     38   1.247307695705341529E-01 3.265605835984801697E+00
pair_coeff 8     38   1.247307695705341529E-01 3.265605835984801697E+00
pair_coeff 9     38   1.247307695705341529E-01 3.265605835984801697E+00
pair_coeff 10     38   1.247307695705341529E-01 3.265605835984801697E+00
pair_coeff 11     38   1.247307695705341529E-01 3.265605835984801697E+00
pair_coeff 12      38   8.213171219204309925E-02 3.489442153850004225E+00
pair_coeff 13    38   1.304246953774084068E-02 4.751277923558641980E+00
pair_coeff 14    38   4.803545270493036340E-02 4.131040317787165073E+00
pair_coeff 15    38   9.991534309570471173E-02 3.720150573079720857E+00
pair_coeff 16    38   1.452112951590650569E-01 3.569751941621275737E+00
pair_coeff 17    38   1.752916242405209712E-01 3.551623812444546502E+00
pair_coeff 18   38   1.079559410458155871E-01 3.666923562840495698E+00
pair_coeff 19    38   1.105579208808877417E-01 3.566546887462056503E+00
pair_coeff 20     38   5.365296737619508483E-02 2.840724948583317921E+00
pair_coeff 21      38   0.000000000000000000E+00 0.000000000000000000E+00
pair_coeff 22    38   0.000000000000000000E+00 0.000000000000000000E+00
pair_coeff 23      38   2.152779911056781903E-01 3.353556576335538608E+00
pair_coeff 24   38   4.554675757398939928E-01 2.272145541239902311E+00
pair_coeff 25   38   4.554675757398939928E-01 2.272145541239902311E+00
pair_coeff 26     38   0.000000000000000000E+00 0.000000000000000000E+00
pair_coeff 27   38   3.356002855827399101E-01 2.390793155000958237E+00
pair_coeff 28   38   8.719304288914962731E-02 2.563805607595497360E+00
pair_coeff 29   38   1.110252117573227587E-01 3.092690407585096501E+00
pair_coeff 30     38   1.556582352210648112E-01 3.404944009291379192E+00
pair_coeff 31      38   1.052935283978697484E-01 3.161703247501671754E+00
pair_coeff 32     38   1.747320856505523434E-01 3.434758191740909350E+00
pair_coeff 33     38   2.664721509299896041E-01 3.523196849439405476E+00
pair_coeff 34   38   1.572767529134725395E-01 3.499201218301315031E+00
pair_coeff 35   38   1.156477136957594076E-01 3.286605954458409862E+00
pair_coeff 36    38   2.277117131083897586E-02 3.257627614890140855E+00
pair_coeff 37    38   1.284417844007869070E-01 3.731705808274059954E+00
pair_coeff 38   38   1.017414853056947954E-01 3.400055004425153182E+00
pair_coeff 1      39  3.025968882784489944E-01 3.081336470273898787E+00
pair_coeff 2     39  3.514073722894541785E-01 3.005486090817345968E+00
pair_coeff 3     39  2.750880802531354141E-01 3.130674422401240609E+00
pair_coeff 4     39  2.750880802531354141E-01 3.130674422401240609E+00
pair_coeff 5     39  2.157363454631790467E-01 3.299975857040665872E+00
pair_coeff 6      39  2.140085697228813477E-01 3.284734136688360451E+00
pair_coeff 7     39  2.140085697228813477E-01 3.284734136688360451E+00
pair_coeff 8     39  2.140085697228813477E-01 3.284734136688360451E+00
pair_coeff 9     39  2.140085697228813477E-01 3.284734136688360451E+00
pair_coeff 10     39  2.140085697228813477E-01 3.284734136688360451E+00
pair_coeff 11     39  2.140085697228813477E-01 3.284734136688360451E+00
pair_coeff 12      39  1.409186387258750672E-01 3.509881576780662371E+00
pair_coeff 13    39  2.237780028966923282E-02 4.779108555120642698E+00
pair_coeff 14    39  8.241750263201898241E-02 4.155237904815708205E+00
pair_coeff 15    39  1.714311532183001030E-01 3.741941371601773980E+00
pair_coeff 16    39  2.491483191485096838E-01 3.590661779490871286E+00
pair_coeff 17    39  3.007590662454852626E-01 3.572427464716889212E+00
pair_coeff 18   39  1.852269220806647965E-01 3.688402583913419353E+00
pair_coeff 19    39  1.896913055272583803E-01 3.587437951712664219E+00
pair_coeff 20     39  9.205583232672064076E-02 2.857364507599851500E+00
pair_coeff 21      39  0.000000000000000000E+00 0.000000000000000000E+00
pair_coeff 22    39  0.000000000000000000E+00 0.000000000000000000E+00
pair_coeff 23      39  3.693662367992399664E-01 3.373200048891741964E+00
pair_coeff 24   39  7.814748900761182560E-01 2.285454643849949008E+00
pair_coeff 25   39  7.814748900761182560E-01 2.285454643849949008E+00
pair_coeff 26     39  0.000000000000000000E+00 0.000000000000000000E+00
pair_coeff 27   39  5.758109034638668744E-01 2.404797236536131866E+00
pair_coeff 28   39  1.496026879553617739E-01 2.578823110340977554E+00
pair_coeff 29   39  1.904930664115593308E-01 3.110805855398001363E+00
pair_coeff 30     39  2.670728032862023649E-01 3.424888483964596109E+00
pair_coeff 31      39  1.806588501866098206E-01 3.180222938331227489E+00
pair_coeff 32     39  2.997990300510781636E-01 3.454877303120381882E+00
pair_coeff 33     39  4.572033355350892392E-01 3.543833990649556398E+00
pair_coeff 34   39  2.698497977488837352E-01 3.519697804995386647E+00
pair_coeff 35   39  1.984241890350484927E-01 3.305857263449297090E+00
pair_coeff 36    39  3.906995699558794138E-02 3.276709183128165837E+00
pair_coeff 37    39  2.203757955387509737E-01 3.753564291637640160E+00
pair_coeff 38   39  1.745857558702323398E-01 3.420002180612172538E+00
pair_coeff 39  39  2.995112907802387481E-01 3.440003336141669088E+00
pair_coeff 1      40   7.770287548036601544E-02 2.465397265096893165E+00
pair_coeff 2     40   9.023676167734992482E-02 2.404708885274443819E+00
pair_coeff 3     40   7.063897770942365040E-02 2.504872880114495270E+00
pair_coeff 4     40   7.063897770942365040E-02 2.504872880114495270E+00
pair_coeff 5     40   5.539823784535763407E-02 2.640332054392829697E+00
pair_coeff 6      40   5.495456790555701410E-02 2.628137055231117181E+00
pair_coeff 7     40   5.495456790555701410E-02 2.628137055231117181E+00
pair_coeff 8     40   5.495456790555701410E-02 2.628137055231117181E+00
pair_coeff 9     40   5.495456790555701410E-02 2.628137055231117181E+00
pair_coeff 10     40   5.495456790555701410E-02 2.628137055231117181E+00
pair_coeff 11     40   5.495456790555701410E-02 2.628137055231117181E+00
pair_coeff 12      40   3.618604110595938922E-02 2.808278980140014092E+00
pair_coeff 13    40   5.746322902807278477E-03 3.823795705227954755E+00
pair_coeff 14    40   2.116372372780480487E-02 3.324632757632268287E+00
pair_coeff 15    40   4.402125093804482719E-02 2.993951524832954014E+00
pair_coeff 16    40   6.397799041847561374E-02 2.872911743474042101E+00
pair_coeff 17    40   7.723094710927499995E-02 2.858322350135023004E+00
pair_coeff 18   40   4.756382176938069029E-02 2.951114794077698278E+00
pair_coeff 19    40   4.871021634409310186E-02 2.870332337990671334E+00
pair_coeff 20     40   2.363871921228234349E-02 2.286195847282922244E+00
pair_coeff 21      40   0.000000000000000000E+00 0.000000000000000000E+00
pair_coeff 22    40   0.000000000000000000E+00 0.000000000000000000E+00
pair_coeff 23      40   9.484836036467202136E-02 2.698919204504523606E+00
pair_coeff 24   40   2.006724075058574086E-01 1.828607061516331456E+00
pair_coeff 25   40   2.006724075058574086E-01 1.828607061516331456E+00
pair_coeff 26     40   0.000000000000000000E+00 0.000000000000000000E+00
pair_coeff 27   40   1.478606180871174514E-01 1.924093842806378074E+00
pair_coeff 28   40   3.841598999863683750E-02 2.063333071457193135E+00
pair_coeff 29   40   4.891609792639325244E-02 2.488975910983167061E+00
pair_coeff 30     40   6.858076068133200920E-02 2.740275456148935529E+00
pair_coeff 31      40   4.639080137386862590E-02 2.544516968594239259E+00
pair_coeff 32     40   7.698442252240610129E-02 2.764269704567898334E+00
pair_coeff 33     40   1.174037646335611834E-01 2.835444526357811412E+00
pair_coeff 34   40   6.929385610069017931E-02 2.816133007906088892E+00
pair_coeff 35   40   5.095270523302689036E-02 2.645037805749309356E+00
pair_coeff 36    40   1.003264779331716934E-02 2.621716237916714931E+00
pair_coeff 37    40   5.658958721306098921E-02 3.003251098425550492E+00
pair_coeff 38   40   4.492103907914993949E-02 2.799891255752950503E+00
pair_coeff 39  40   7.712993371945030263E-02 2.820082387646319688E+00
pair_coeff 40   40   1.974960730563848910E-02 2.202188219488486975E+00
pair_coeff 1      41  3.078683944880841739E-01 3.134598379462572915E+00
pair_coeff 2     41  3.575292004274581159E-01 3.057436901376735072E+00
pair_coeff 3     41  2.798803586255310671E-01 3.184789154237201991E+00
pair_coeff 4     41  2.798803586255310671E-01 3.184789154237201991E+00
pair_coeff 5     41  2.194946639681157330E-01 3.357017019574562333E+00
pair_coeff 6      41  2.177367888418141884E-01 3.341511841098447899E+00
pair_coeff 7     41  2.177367888418141884E-01 3.341511841098447899E+00
pair_coeff 8     41  2.177367888418141884E-01 3.341511841098447899E+00
pair_coeff 9     41  2.177367888418141884E-01 3.341511841098447899E+00
pair_coeff 10     41  2.177367888418141884E-01 3.341511841098447899E+00
pair_coeff 11     41  2.177367888418141884E-01 3.341511841098447899E+00
pair_coeff 12      41  1.433735664130799115E-01 3.570551028367321855E+00
pair_coeff 13    41  2.276764142074000352E-02 4.861717010354688284E+00
pair_coeff 14    41  8.385328863556677781E-02 4.227062551711202154E+00
pair_coeff 15    41  1.744176359738121573E-01 3.806622052678410917E+00
pair_coeff 16    41  2.534887038728330655E-01 3.652727543314932213E+00
pair_coeff 17    41  3.059985559650827969E-01 3.634178042443301226E+00
pair_coeff 18   41  1.884537393671708305E-01 3.752157829525465615E+00
pair_coeff 19    41  1.929958963334948985E-01 3.649447990618651438E+00
pair_coeff 20     41  9.365952658314305457E-02 2.906754988123776862E+00
pair_coeff 21      41  0.000000000000000000E+00 0.000000000000000000E+00
pair_coeff 22    41  0.000000000000000000E+00 0.000000000000000000E+00
pair_coeff 23      41  3.758009242872520916E-01 3.431506915542800851E+00
pair_coeff 24   41  7.950888758614560459E-01 2.324959475233958628E+00
pair_coeff 25   41  7.950888758614560459E-01 2.324959475233958628E+00
pair_coeff 26     41  0.000000000000000000E+00 0.000000000000000000E+00
pair_coeff 27   41  5.858420401700457081E-01 2.446364943686976545E+00
pair_coeff 28   41  1.522088994832513364E-01 2.623398911666701139E+00
pair_coeff 29   41  1.938116246035951340E-01 3.164577152551757422E+00
pair_coeff 30     41  2.717254484239552959E-01 3.484088802129798879E+00
pair_coeff 31      41  1.838060876086547446E-01 3.235194132478707463E+00
pair_coeff 32     41  3.050217950885778517E-01 3.514595987837878077E+00
pair_coeff 33     41  4.651682231981815185E-01 3.605090320820125260E+00
pair_coeff 34   41  2.745508205934842905E-01 3.580536933298883895E+00
pair_coeff 35   41  2.018809144184158522E-01 3.363000088017528810E+00
pair_coeff 36    41  3.975059030310198332E-02 3.333348173589975261E+00
pair_coeff 37    41  2.242149373793861367E-01 3.818445878690444051E+00
pair_coeff 38   41  1.776054487496074863E-01 3.479086156840626831E+00
pair_coeff 39  41  3.047290431444037995E-01 3.499464919472758506E+00
pair_coeff 40   41  7.825038462692963936E-02 2.799944545168011611E+00
pair_coeff 41  41  3.100376933831125448E-01 3.559954315729227936E+00
pair_coeff 1      42  2.517150719017874350E-01 3.216286733597559344E+00
pair_coeff 2     42  2.923180488930291476E-01 3.137114409660223480E+00
pair_coeff 3     42  2.288318835470794788E-01 3.267785491497223305E+00
pair_coeff 4     42  2.288318835470794788E-01 3.267785491497223305E+00
pair_coeff 5     42  1.794601723072659361E-01 3.444501654585188533E+00
pair_coeff 6      42  1.780229229119614787E-01 3.428592407594721170E+00
pair_coeff 7     42  1.780229229119614787E-01 3.428592407594721170E+00
pair_coeff 8     42  1.780229229119614787E-01 3.428592407594721170E+00
pair_coeff 9     42  1.780229229119614787E-01 3.428592407594721170E+00
pair_coeff 10     42  1.780229229119614787E-01 3.428592407594721170E+00
pair_coeff 11     42  1.780229229119614787E-01 3.428592407594721170E+00
pair_coeff 12      42  1.172230999498745652E-01 3.663600408719620116E+00
pair_coeff 13    42  1.861496210673063006E-02 4.988414472922134912E+00
pair_coeff 14    42  6.855895881485152277E-02 4.337220773235620719E+00
pair_coeff 15    42  1.426049200441300291E-01 3.905823498176049124E+00
pair_coeff 16    42  2.072539060975635561E-01 3.747918462531858008E+00
pair_coeff 17    42  2.501862805523388245E-01 3.728885557404626905E+00
pair_coeff 18   42  1.540809235512614617E-01 3.849939924851243589E+00
pair_coeff 19    42  1.577946187139902257E-01 3.744553443938634096E+00
pair_coeff 20     42  7.657659860592054557E-02 2.982505691119483604E+00
pair_coeff 21      42  0.000000000000000000E+00 0.000000000000000000E+00
pair_coeff 22    42  0.000000000000000000E+00 0.000000000000000000E+00
pair_coeff 23      42  3.072571214561132247E-01 3.520932774360979955E+00
pair_coeff 24   42  6.500695009260647472E-01 2.385548453460561547E+00
pair_coeff 25   42  6.500695009260647472E-01 2.385548453460561547E+00
pair_coeff 26     42  0.000000000000000000E+00 0.000000000000000000E+00
pair_coeff 27   42  4.789880153488779158E-01 2.510117776321816319E+00
pair_coeff 28   42  1.244469220077783211E-01 2.691765290191502125E+00
pair_coeff 29   42  1.584615631091823018E-01 3.247046760402909182E+00
pair_coeff 30     42  2.221643793651205678E-01 3.574884956996347896E+00
pair_coeff 31      42  1.502809752047785663E-01 3.319504035055336644E+00
pair_coeff 32     42  2.493876749186909880E-01 3.606187166974876845E+00
pair_coeff 33     42  3.803243686103310317E-01 3.699039803071263677E+00
pair_coeff 34   42  2.244744208358758208E-01 3.673846548628572073E+00
pair_coeff 35   42  1.650590635421556873E-01 3.450640643166755339E+00
pair_coeff 36    42  3.250032440946476475E-02 3.420215993034873669E+00
pair_coeff 37    42  1.833194965587523484E-01 3.917955455811204413E+00
pair_coeff 38   42  1.452112951590650569E-01 3.569751941621275737E+00
pair_coeff 39  42  2.491483191485096838E-01 3.590661779490871286E+00
pair_coeff 40   42  6.397799041847561374E-02 2.872911743474042101E+00
pair_coeff 41  42  2.534887038728330655E-01 3.652727543314932213E+00
pair_coeff 42  42  2.072539060975635561E-01 3.747918462531858008E+00
pair_coeff 1      43  3.540045720962458620E-01 2.694267436109534231E+00
pair_coeff 2     43  4.111073883361350823E-01 2.627945173235017418E+00
pair_coeff 3     43  2.223108962183115156E-01 2.911490578234520399E+00
pair_coeff 4     43  3.218223382693144452E-01 2.737407690042663599E+00
pair_coeff 5     43  1.944751755089789147E-01 3.013558317663839858E+00
pair_coeff 6      43  1.512164790871689257E-01 3.123905428815852758E+00
pair_coeff 7     43  1.305838306072752142E-01 3.201224736341582222E+00
pair_coeff 8     43  9.576715086909036445E-02 3.371022389085928772E+00
pair_coeff 9     43  1.595945784173651294E-01 3.095955496253500083E+00
pair_coeff 10     43  1.367847387646038970E-01 3.176567760880071756E+00
pair_coeff 11     43  1.480915417673231704E-01 3.134796518078508232E+00
pair_coeff 12      43  1.648590726968548470E-01 3.068979881992677683E+00
pair_coeff 13    43  2.617952769134209573E-02 4.178770049266796960E+00
pair_coeff 14    43  9.641927555329404820E-02 3.633268318548095621E+00
pair_coeff 15    43  2.005553077041754007E-01 3.271888962013142610E+00
pair_coeff 16    43  2.914757141438480414E-01 3.139612697248032713E+00
pair_coeff 17    43  3.518545255241552483E-01 3.123668927072572821E+00
pair_coeff 18   43  2.166948168731066826E-01 3.225075569957748023E+00
pair_coeff 19    43  2.219176470240586396E-01 3.136793837871186597E+00
pair_coeff 20     43  1.076950451050141949E-01 2.498430216949698135E+00
pair_coeff 21      43  0.000000000000000000E+00 0.000000000000000000E+00
pair_coeff 22    43  0.000000000000000000E+00 0.000000000000000000E+00
pair_coeff 23      43  4.321172545720066149E-01 2.949467912669808012E+00
pair_coeff 24   43  2.241432820636522216E-01 2.525979396632042295E+00
pair_coeff 25   43  1.232760656668827753E-01 2.790643100279648792E+00
pair_coeff 26     43  0.000000000000000000E+00 0.000000000000000000E+00
pair_coeff 27   43  5.190637964627597967E-01 2.196075677037649054E+00
pair_coeff 28   43  1.348590981935383903E-01 2.354997178955427373E+00
pair_coeff 29   43  1.717196629251071804E-01 2.840807104746190692E+00
pair_coeff 30     43  3.124453591831943267E-01 2.994663388329067644E+00
pair_coeff 31      43  2.113506828162100282E-01 2.780732057331203322E+00
pair_coeff 32     43  3.507313903718691228E-01 3.020885094292788509E+00
pair_coeff 33     43  5.348768524286334758E-01 3.098667286775234508E+00
pair_coeff 34   43  3.156941326324790298E-01 3.077563022548567950E+00
pair_coeff 35   43  1.788691604327004581E-01 3.018929254291899511E+00
pair_coeff 36    43  3.521954878549677509E-02 2.992311047462213214E+00
pair_coeff 37    43  2.578150741863444728E-01 3.282051842720017820E+00
pair_coeff 38   43  2.042208359552802888E-01 2.990363486821641992E+00
pair_coeff 39  43  3.503947675532131378E-01 3.007879554241217335E+00
pair_coeff 40   43  8.997673818477992802E-02 2.406623910860338000E+00
pair_coeff 41  43  3.564989552184898436E-01 3.059871736599097503E+00
pair_coeff 42  43  2.914757141438480414E-01 3.139612697248032713E+00
pair_coeff 43  43  4.099227538595709985E-01 2.630037976349726581E+00
pair_coeff 1      44   1.289710283612314212E-01 3.227417274371960687E+00
pair_coeff 2     44   1.497747397064584929E-01 3.147970960317207023E+00
pair_coeff 3     44   1.172463894193012807E-01 3.279094253018750571E+00
pair_coeff 4     44   1.172463894193012807E-01 3.279094253018750571E+00
pair_coeff 5     44   9.194984947656417718E-02 3.456421974285966314E+00
pair_coeff 6      44   9.121344727734942426E-02 3.440457670474703633E+00
pair_coeff 7     44   9.121344727734942426E-02 3.440457670474703633E+00
pair_coeff 8     44   9.121344727734942426E-02 3.440457670474703633E+00
pair_coeff 9     44   9.121344727734942426E-02 3.440457670474703633E+00
pair_coeff 10     44   9.121344727734942426E-02 3.440457670474703633E+00
pair_coeff 11     44   9.121344727734942426E-02 3.440457670474703633E+00
pair_coeff 12      44   6.006149585721085732E-02 3.676278959205930619E+00
pair_coeff 13    44   9.537731641064108729E-03 5.005677781603687038E+00
pair_coeff 14    44   3.512749298213131699E-02 4.352230508580356094E+00
pair_coeff 15    44   7.306635652965057237E-02 3.919340305384166889E+00
pair_coeff 16    44   1.061905002323981356E-01 3.760888810862612175E+00
pair_coeff 17    44   1.281877228920814960E-01 3.741790038931789741E+00
pair_coeff 18   44   7.894630627842579018E-02 3.863263336867006181E+00
pair_coeff 19    44   8.084908897847854770E-02 3.757512147015167780E+00
pair_coeff 20     44   3.923548397794881376E-02 2.992827190399418136E+00
pair_coeff 21      44   0.000000000000000000E+00 0.000000000000000000E+00
pair_coeff 22    44   0.000000000000000000E+00 0.000000000000000000E+00
pair_coeff 23      44   1.574290590790217992E-01 3.533117597747393646E+00
pair_coeff 24   44   3.330755342032887256E-01 2.393804074470089471E+00
pair_coeff 25   44   3.330755342032887256E-01 2.393804074470089471E+00
pair_coeff 26     44   0.000000000000000000E+00 0.000000000000000000E+00
pair_coeff 27   44   2.454186650227814237E-01 2.518804491957598035E+00
pair_coeff 28   44   6.376275916443908953E-02 2.701080629836012825E+00
pair_coeff 29   44   8.119081068730508999E-02 3.258283751802188988E+00
pair_coeff 30     44   1.138301662092522648E-01 3.587256491649024159E+00
pair_coeff 31      44   7.699933011103650415E-02 3.330991777931932241E+00
pair_coeff 32     44   1.277785420311642051E-01 3.618667028575163869E+00
pair_coeff 33     44   1.948664597630800355E-01 3.711840997978461676E+00
pair_coeff 34   44   1.150137601108388863E-01 3.686560557731444199E+00
pair_coeff 35   44   8.457116613851239917E-02 3.462582207945594348E+00
pair_coeff 36    44   1.665216242115909184E-02 3.432052267820347335E+00
pair_coeff 37    44   9.392724802379077975E-02 3.931514247848511001E+00
pair_coeff 38   44   7.440178263794279545E-02 3.582105712547747789E+00
pair_coeff 39  44   1.276559035272747666E-01 3.603087912685470684E+00
pair_coeff 40   44   3.278034626379167787E-02 2.882853973116679569E+00
pair_coeff 41  44   1.298797826027309477E-01 3.665368466287981519E+00
pair_coeff 42  44   1.061905002323981356E-01 3.760888810862612175E+00
pair_coeff 43  44   1.493431533973610947E-01 3.150477893680148966E+00
pair_coeff 44   44   5.440873251526867627E-02 3.773904045424884668E+00
pair_coeff 1      45  2.876124418215142975E-01 3.084725325848334254E+00
pair_coeff 2     45  3.340058550940822601E-01 3.008791526102005953E+00
pair_coeff 3     45  2.614658562013765786E-01 3.134117539883036763E+00
pair_coeff 4     45  2.614658562013765786E-01 3.134117539883036763E+00
pair_coeff 5     45  2.050531896125046272E-01 3.303605172335025486E+00
pair_coeff 6      45  2.034109724621096793E-01 3.288346689130147382E+00
pair_coeff 7     45  2.034109724621096793E-01 3.288346689130147382E+00
pair_coeff 8     45  2.034109724621096793E-01 3.288346689130147382E+00
pair_coeff 9     45  2.034109724621096793E-01 3.288346689130147382E+00
pair_coeff 10     45  2.034109724621096793E-01 3.288346689130147382E+00
pair_coeff 11     45  2.034109724621096793E-01 3.288346689130147382E+00
pair_coeff 12      45  1.339404182663543053E-01 3.513741746503062924E+00
pair_coeff 13    45  2.126966281947830981E-02 4.784364621384128213E+00
pair_coeff 14    45  7.833622915187883617E-02 4.159807837788846996E+00
pair_coeff 15    45  1.629419683127158180E-01 3.746056760816388831E+00
pair_coeff 16    45  2.368106190837268310E-01 3.594610791325419719E+00
pair_coeff 17    45  2.858656278157876152E-01 3.576356422441845595E+00
pair_coeff 18   45  1.760545776058381751E-01 3.692459091139371985E+00
pair_coeff 19    45  1.802978870185932558E-01 3.591383417979618908E+00
pair_coeff 20     45  8.749727358411062139E-02 2.860507038684394931E+00
pair_coeff 21      45  0.000000000000000000E+00 0.000000000000000000E+00
pair_coeff 22    45  0.000000000000000000E+00 0.000000000000000000E+00
pair_coeff 23      45  3.510754056218069463E-01 3.376909896193278637E+00
pair_coeff 24   45  7.427766446499820541E-01 2.287968188146278781E+00
pair_coeff 25   45  7.427766446499820541E-01 2.287968188146278781E+00
pair_coeff 26     45  0.000000000000000000E+00 0.000000000000000000E+00
pair_coeff 27   45  5.472970357193517321E-01 2.407442033882686516E+00
pair_coeff 28   45  1.421944377243884450E-01 2.581659301440933696E+00
pair_coeff 29   45  1.810599451051872477E-01 3.114227121418688515E+00
pair_coeff 30     45  2.538474917381768337E-01 3.428655178235952672E+00
pair_coeff 31      45  1.717127143456437521E-01 3.183720549298572955E+00
pair_coeff 32     45  2.849531321332268163E-01 3.458676979111828587E+00
pair_coeff 33     45  4.345628551909777593E-01 3.547731501255731335E+00
pair_coeff 34   45  2.564869708249599145E-01 3.523568770611071432E+00
pair_coeff 35   45  1.885983225059109647E-01 3.309493047117717079E+00
pair_coeff 36    45  3.713523227979241559E-02 3.280312909721536219E+00
pair_coeff 37    45  2.094628964423923267E-01 3.757692463746214351E+00
pair_coeff 38   45  1.659200415184466093E-01 3.423732127576304407E+00
pair_coeff 39  45  2.846796415670648783E-01 3.443786653735909642E+00
pair_coeff 40   45  7.310196369278490480E-02 2.755396004170551638E+00
pair_coeff 41  45  2.896390134456565679E-01 3.503313632949622392E+00
pair_coeff 42  45  2.368106190837268310E-01 3.594610791325419719E+00
pair_coeff 43  45  3.330433940375682744E-01 3.011187621858291141E+00
pair_coeff 44   45  1.213344470767514366E-01 3.607050590788261513E+00
pair_coeff 45  45  2.705824481996443320E-01 3.447574132224956678E+00
pair_coeff 1      46   1.591939588900956049E-01 2.914305969007454422E+00
pair_coeff 2     46   1.848727893277152534E-01 2.842567223260527687E+00
pair_coeff 3     46   1.297424277832890105E-01 3.015383630983031082E+00
pair_coeff 4     46   1.447217808091778302E-01 2.960969450834395111E+00
pair_coeff 5     46   1.134972772065044738E-01 3.121093535396749274E+00
pair_coeff 6      46   8.825115390810175930E-02 3.235378250992776650E+00
pair_coeff 7     46   7.620977424152966528E-02 3.315456605363892528E+00
pair_coeff 8     46   5.589047980555466449E-02 3.491313283895585595E+00
pair_coeff 9     46   9.314068008877877947E-02 3.206430958576428125E+00
pair_coeff 10     46   7.982867413568051074E-02 3.289919775276922032E+00
pair_coeff 11     46   8.642741534447667684E-02 3.246657975726112255E+00
pair_coeff 12      46   7.413624147890124361E-02 3.319620862051439580E+00
pair_coeff 13    46   1.177279330145077942E-02 4.520046649590542032E+00
pair_coeff 14    46   4.335923148605760197E-02 3.929994255893134447E+00
pair_coeff 15    46   9.018864705840204388E-02 3.539101354278793465E+00
pair_coeff 16    46   1.310750665736078457E-01 3.396022199330606561E+00
pair_coeff 17    46   1.582270944691577808E-01 3.378776314988137131E+00
pair_coeff 18   46   9.744649783680001121E-02 3.488464752259239798E+00
pair_coeff 19    46   9.979517656548757276E-02 3.392973126102896142E+00
pair_coeff 20     46   4.842988462435294378E-02 2.702474890510119909E+00
pair_coeff 21      46   0.000000000000000000E+00 0.000000000000000000E+00
pair_coeff 22    46   0.000000000000000000E+00 0.000000000000000000E+00
pair_coeff 23      46   1.943208135778947410E-01 3.190348451711801925E+00
pair_coeff 24   46   1.308118229063097715E-01 2.616115944782948066E+00
pair_coeff 25   46   7.194490382282986429E-02 2.890223855576281586E+00
pair_coeff 26     46   0.000000000000000000E+00 0.000000000000000000E+00
pair_coeff 27   46   3.029298080889223921E-01 2.274440006244081047E+00
pair_coeff 28   46   7.870485480438377257E-02 2.439032431538718626E+00
pair_coeff 29   46   1.002169769679346900E-01 2.942177902435911818E+00
pair_coeff 30     46   1.405050035672634479E-01 3.239235003477465291E+00
pair_coeff 31      46   9.504326939170110178E-02 3.007832082398090190E+00
pair_coeff 32     46   1.577220266102814239E-01 3.267598213893569081E+00
pair_coeff 33     46   2.405312540247006858E-01 3.351732811965022041E+00
pair_coeff 34   46   1.419659595765774829E-01 3.328904980405696268E+00
pair_coeff 35   46   1.043894812394069449E-01 3.126656127462947410E+00
pair_coeff 36    46   2.055441205353729026E-02 3.099088081816367968E+00
pair_coeff 37    46   1.159380571788471426E-01 3.550094228820277475E+00
pair_coeff 38   46   9.183701546862199638E-02 3.234583932666422079E+00
pair_coeff 39  46   1.575706491327610870E-01 3.253530522433367267E+00
pair_coeff 40   46   4.046205695828821586E-02 2.603170841386070578E+00
pair_coeff 41  46   1.603156696122686187E-01 3.309768862160356484E+00
pair_coeff 42  46   1.310750665736078457E-01 3.396022199330606561E+00
pair_coeff 43  46   1.843400655522983711E-01 2.844830943827911796E+00
pair_coeff 44   46   6.715881572284602974E-02 3.407774747126039561E+00
pair_coeff 45  46   1.497678294522704623E-01 3.257108757122733511E+00
pair_coeff 46   46   8.289673956344170702E-02 3.077165870507050371E+00
pair_coeff 1      47   1.722085049816445279E-01 3.045791995942584762E+00
pair_coeff 2     47   1.999866507741778487E-01 2.970816581583684446E+00
pair_coeff 3     47   1.565531863469495633E-01 3.094560814646859725E+00
pair_coeff 4     47   1.565531863469495633E-01 3.094560814646859725E+00
pair_coeff 5     47   1.227759932819626476E-01 3.261909288109908545E+00
pair_coeff 6      47   1.217927125916918318E-01 3.246843387225244904E+00
pair_coeff 7     47   1.217927125916918318E-01 3.246843387225244904E+00
pair_coeff 8     47   1.217927125916918318E-01 3.246843387225244904E+00
pair_coeff 9     47   1.217927125916918318E-01 3.246843387225244904E+00
pair_coeff 10     47   1.217927125916918318E-01 3.246843387225244904E+00
pair_coeff 11     47   1.217927125916918318E-01 3.246843387225244904E+00
pair_coeff 12      47   8.019708410451541203E-02 3.469393659665676477E+00
pair_coeff 13    47   1.273525168942131643E-02 4.723979586569880595E+00
pair_coeff 14    47   4.690396848866595220E-02 4.107305538950095425E+00
pair_coeff 15    47   9.756181820295757590E-02 3.698776550000724583E+00
pair_coeff 16    47   1.417908155082314992E-01 3.549242029754096084E+00
pair_coeff 17    47   1.711625967222450972E-01 3.531218055246321708E+00
pair_coeff 18   47   1.054130183404619059E-01 3.645855354088885392E+00
pair_coeff 19    47   1.079537080460851450E-01 3.546055390145638864E+00
pair_coeff 20     47   5.238916153439685669E-02 2.824403641308426582E+00
pair_coeff 21      47   0.000000000000000000E+00 0.000000000000000000E+00
pair_coeff 22    47   0.000000000000000000E+00 0.000000000000000000E+00
pair_coeff 23      47   2.102070771175983122E-01 3.334288809009665400E+00
pair_coeff 24   47   4.447389504444150266E-01 2.259090991354548272E+00
pair_coeff 25   47   4.447389504444150266E-01 2.259090991354548272E+00
pair_coeff 26     47   0.000000000000000000E+00 0.000000000000000000E+00
pair_coeff 27   47   3.276951570843523731E-01 2.377056918505081384E+00
pair_coeff 28   47   8.513919419528666321E-02 2.549075332798732774E+00
pair_coeff 29   47   1.084099917971301230E-01 3.074921439676577162E+00
pair_coeff 30     47   1.519916759119208927E-01 3.385380996878945226E+00
pair_coeff 31      47   1.028133193283557872E-01 3.143537768214339501E+00
pair_coeff 32     47   1.706162381700878361E-01 3.415023882760973351E+00
pair_coeff 33     47   2.601953487792239561E-01 3.502954418577414852E+00
pair_coeff 34   47   1.535720691125297410E-01 3.479096653679860207E+00
pair_coeff 35   47   1.129236098240292002E-01 3.267722850094167519E+00
pair_coeff 36    47   2.223479204358534689E-02 3.238911004781051872E+00
pair_coeff 37    47   1.254163137624429714E-01 3.710265394908199177E+00
pair_coeff 38   47   9.934494528618387221E-02 3.380520081656078979E+00
pair_coeff 39  47   1.704524851654297402E-01 3.400321493064580203E+00
pair_coeff 40   47   4.376994193654968474E-02 2.720619247630047699E+00
pair_coeff 41  47   1.734219186553421499E-01 3.459097162753066002E+00
pair_coeff 42  47   1.417908155082314992E-01 3.549242029754096084E+00
pair_coeff 43  47   1.994103753578723159E-01 2.973182435429682080E+00
pair_coeff 44   47   7.264923450991972453E-02 3.561524822428556725E+00
pair_coeff 45  47   1.620117634119973837E-01 3.404061168545596594E+00
pair_coeff 46   47   8.967377711819192465E-02 3.215999719401493095E+00
pair_coeff 47   47   9.700485622222822235E-02 3.361097396249958624E+00
pair_coeff 1      48  1.891372059020736129E-01 3.289260052245521315E+00
pair_coeff 2     48  2.196460409964854366E-01 3.208291412338459381E+00
pair_coeff 3     48  1.719429144564305345E-01 3.341927249274361689E+00
pair_coeff 4     48  1.719429144564305345E-01 3.341927249274361689E+00
pair_coeff 5     48  1.348453046710865466E-01 3.522652869835305456E+00
pair_coeff 6      48  1.337653640351980922E-01 3.506382662940996653E+00
pair_coeff 7     48  1.337653640351980922E-01 3.506382662940996653E+00
pair_coeff 8     48  1.337653640351980922E-01 3.506382662940996653E+00
pair_coeff 9     48  1.337653640351980922E-01 3.506382662940996653E+00
pair_coeff 10     48  1.337653640351980922E-01 3.506382662940996653E+00
pair_coeff 11     48  1.337653640351980922E-01 3.506382662940996653E+00
pair_coeff 12      48  8.808073916348332921E-02 3.746722686727856910E+00
pair_coeff 13    48  1.398717166294168902E-02 5.101595040773273304E+00
pair_coeff 14    48  5.151479334084436285E-02 4.435626611939518682E+00
pair_coeff 15    48  1.071524876172654656E-01 3.994441499717314326E+00
pair_coeff 16    48  1.557293507115795339E-01 3.832953806357374926E+00
pair_coeff 17    48  1.879884811870324024E-01 3.813489069628770434E+00
pair_coeff 18   48  1.157754883055521766E-01 3.937290001564532460E+00
pair_coeff 19    48  1.185659367333865843E-01 3.829512439915094824E+00
pair_coeff 20     48  5.753920012965894198E-02 3.050174825184523542E+00
pair_coeff 21      48  0.000000000000000000E+00 0.000000000000000000E+00
pair_coeff 22    48  0.000000000000000000E+00 0.000000000000000000E+00
pair_coeff 23      48  2.308711711486143847E-01 3.600818111261308019E+00
pair_coeff 24   48  4.884583514144283378E-01 2.439673412415888976E+00
pair_coeff 25   48  4.884583514144283378E-01 2.439673412415888976E+00
pair_coeff 26     48  0.000000000000000000E+00 0.000000000000000000E+00
pair_coeff 27   48  3.599087420518621294E-01 2.567069049484753673E+00
pair_coeff 28   48  9.350867603529200434E-02 2.752837906695117631E+00
pair_coeff 29   48  1.190670747798516088E-01 3.320717983629539294E+00
pair_coeff 30     48  1.669329915233766226E-01 3.655994398008439283E+00
pair_coeff 31      48  1.129202297491380125E-01 3.394819218609366196E+00
pair_coeff 32     48  1.873884136701188530E-01 3.688006813989214816E+00
pair_coeff 33     48  2.857734654979058875E-01 3.782966154357451316E+00
pair_coeff 34   48  1.686687429267214045E-01 3.757201298084295260E+00
pair_coeff 35   48  1.240243973128351274E-01 3.528931143998987441E+00
pair_coeff 36    48  2.442055020096505283E-02 3.497816198544354993E+00
pair_coeff 37    48  1.377451779288986211E-01 4.006848715525531901E+00
pair_coeff 38   48  1.091109023559897889E-01 3.650744921261102061E+00
pair_coeff 39  48  1.872085631699220987E-01 3.672129175869041973E+00
pair_coeff 40   48  4.807268097041665633E-02 2.938094334912183747E+00
pair_coeff 41  48  1.904699024019997078E-01 3.735603130297924235E+00
pair_coeff 42  48  1.557293507115795339E-01 3.832953806357374926E+00
pair_coeff 43  48  2.190131156825951553E-01 3.210846382788003606E+00
pair_coeff 44   48  7.979090944198904967E-02 3.846218434844132616E+00
pair_coeff 45  48  1.779380888201725353E-01 3.676167785591720083E+00
pair_coeff 46   48  9.848902438719817076E-02 3.473073479460133228E+00
pair_coeff 47   48  1.065407743175067756E-01 3.629769666450928245E+00
pair_coeff 48  48  1.170141066563726712E-01 3.919918490367800601E+00
pair_coeff 1      49   2.491558874764578380E-01 2.855793572536012626E+00
pair_coeff 2     49   2.893460544378792521E-01 2.785495171755656862E+00
pair_coeff 3     49   2.030610329881481768E-01 2.954841833242532800E+00
pair_coeff 4     49   2.265053522513252593E-01 2.901520161607548776E+00
pair_coeff 5     49   1.776356026680076250E-01 3.058429331874637391E+00
pair_coeff 6      49   1.762129657718276565E-01 3.044303251377937780E+00
pair_coeff 7     49   1.192765986091082336E-01 3.248890049401691016E+00
pair_coeff 8     49   1.762129657718276565E-01 3.044303251377937780E+00
pair_coeff 9     49   1.457753106303604218E-01 3.142053380689358466E+00
pair_coeff 10     49   1.762129657718276565E-01 3.044303251377937780E+00
pair_coeff 11     49   1.762129657718276565E-01 3.044303251377937780E+00
pair_coeff 12      49   1.160312939550487005E-01 3.252970697627771912E+00
pair_coeff 13    49   1.842570398745426927E-02 4.429294764084048097E+00
pair_coeff 14    49   6.786192061888589311E-02 3.851089232029210496E+00
pair_coeff 15    49   1.411550573577402545E-01 3.468044538763741080E+00
pair_coeff 16    49   2.051467578661674285E-01 3.327838076089515873E+00
pair_coeff 17    49   2.476426393321955743E-01 3.310938448465757133E+00
pair_coeff 18   49   1.525143844607987631E-01 3.418424600390641999E+00
pair_coeff 19    49   1.561903225248004456E-01 3.324850221067261025E+00
pair_coeff 20     49   7.579804515254030817E-02 2.648215562927745292E+00
pair_coeff 21      49   0.000000000000000000E+00 0.000000000000000000E+00
pair_coeff 22    49   0.000000000000000000E+00 0.000000000000000000E+00
pair_coeff 23      49   3.041332416110918979E-01 3.126293772665116322E+00
pair_coeff 24   49   6.434602513106866262E-01 2.118167472197251655E+00
pair_coeff 25   49   6.434602513106866262E-01 2.118167472197251655E+00
pair_coeff 26     49   0.000000000000000000E+00 0.000000000000000000E+00
pair_coeff 27   49   4.741181493550025716E-01 2.228774610499382636E+00
pair_coeff 28   49   1.231816714918823885E-01 2.390062407746226469E+00
pair_coeff 29   49   1.568504861035088516E-01 2.883105903219756350E+00
pair_coeff 30     49   2.199056365125826029E-01 3.174198797669536276E+00
pair_coeff 31      49   1.487530701482332185E-01 2.947441901958409272E+00
pair_coeff 32     49   2.468521531134249269E-01 3.201992541656678348E+00
pair_coeff 33     49   3.764576148503470665E-01 3.284437915256962270E+00
pair_coeff 34   49   2.221921918165813414E-01 3.262068412762940017E+00
pair_coeff 35   49   1.633809098206280841E-01 3.063880240200058669E+00
pair_coeff 36    49   3.216989396118666994E-02 3.036865695947625898E+00
pair_coeff 37    49   1.814556892113898812E-01 3.478816702288478169E+00
pair_coeff 38   49   1.437349334849495619E-01 3.169641109400411327E+00
pair_coeff 39  49   2.466152308707815766E-01 3.188207296291331261E+00
pair_coeff 40   49   6.332752687886390730E-02 2.550905305106105025E+00
pair_coeff 41  49   2.509114869503538681E-01 3.243316502678857738E+00
pair_coeff 42  49   2.051467578661674285E-01 3.327838076089515873E+00
pair_coeff 43  49   2.223108962183115156E-01 2.911490578234520399E+00
pair_coeff 44   49   1.051108625600908064E-01 3.339354660419386889E+00
pair_coeff 45  49   2.344029680696937956E-01 3.191713688460029452E+00
pair_coeff 46   49   1.297424277832890105E-01 3.015383630983031082E+00
pair_coeff 47   49   1.403492298138912242E-01 3.151430023345263898E+00
pair_coeff 48  49   1.541460520799295686E-01 3.403342348080735658E+00
pair_coeff 49   49   2.030610329881481768E-01 2.954841833242532800E+00
pair_coeff 1      50  1.791876903161000734E-01 3.217141909372776443E+00
pair_coeff 2     50  2.080916157427709912E-01 3.137948534372799969E+00
pair_coeff 3     50  1.628979002873637005E-01 3.268654360233876233E+00
pair_coeff 4     50  1.628979002873637005E-01 3.268654360233876233E+00
pair_coeff 5     50  1.277518010205411225E-01 3.445417510233855118E+00
pair_coeff 6      50  1.267286703926965574E-01 3.429504033147082964E+00
pair_coeff 7     50  1.267286703926965574E-01 3.429504033147082964E+00
pair_coeff 8     50  1.267286703926965574E-01 3.429504033147082964E+00
pair_coeff 9     50  1.267286703926965574E-01 3.429504033147082964E+00
pair_coeff 10     50  1.267286703926965574E-01 3.429504033147082964E+00
pair_coeff 11     50  1.267286703926965574E-01 3.429504033147082964E+00
pair_coeff 12      50  8.344727382835046003E-02 3.664574520351796316E+00
pair_coeff 13    50  1.325137998303192385E-02 4.989740838251888633E+00
pair_coeff 14    50  4.880487047395847683E-02 4.338373993220113078E+00
pair_coeff 15    50  1.015157577071503781E-01 3.906862014301811126E+00
pair_coeff 16    50  1.475372470231036959E-01 3.748914993420465080E+00
pair_coeff 17    50  1.780993939784465407E-01 3.729877027650093879E+00
pair_coeff 18   50  1.096851475929681435E-01 3.850963582140682906E+00
pair_coeff 19    50  1.123288051765993917E-01 3.745549080105277095E+00
pair_coeff 20     50  5.451236484485043332E-02 2.983298707049888421E+00
pair_coeff 21      50  0.000000000000000000E+00 0.000000000000000000E+00
pair_coeff 22    50  0.000000000000000000E+00 0.000000000000000000E+00
pair_coeff 23      50  2.187262507204020268E-01 3.521868952215817750E+00
pair_coeff 24   50  4.627631215556714528E-01 2.386182744932990651E+00
pair_coeff 25   50  4.627631215556714528E-01 2.386182744932990651E+00
pair_coeff 26     50  0.000000000000000000E+00 0.000000000000000000E+00
pair_coeff 27   50  3.409758323607505748E-01 2.510785189426758102E+00
pair_coeff 28   50  8.858967543358814423E-02 2.692481001401170193E+00
pair_coeff 29   50  1.128035809810071233E-01 3.247910114935789849E+00
pair_coeff 30     50  1.581515231017961709E-01 3.575835480151661638E+00
pair_coeff 31      50  1.069800892014212690E-01 3.320386655192049563E+00
pair_coeff 32     50  1.775308928637313044E-01 3.607146013048481148E+00
pair_coeff 33     50  2.707404235563790063E-01 3.700023337654205324E+00
pair_coeff 34   50  1.597959657350944140E-01 3.674823384598274068E+00
pair_coeff 35   50  1.175001247974426788E-01 3.451558131105934013E+00
pair_coeff 36    50  2.313591324292333176E-02 3.421125391389411519E+00
pair_coeff 37    50  1.304991271682363063E-01 3.918997197692981160E+00
pair_coeff 38   50  1.033711505265553082E-01 3.570701099963447422E+00
pair_coeff 39  50  1.773605033542809684E-01 3.591616497532251984E+00
pair_coeff 40   50  4.554382956704794427E-02 2.873675619561858241E+00
pair_coeff 41  50  1.804502806487379984E-01 3.653698763970068875E+00
pair_coeff 42  50  1.475372470231036959E-01 3.748914993420465080E+00
pair_coeff 43  50  2.074919853073012854E-01 3.140447486228195473E+00
pair_coeff 44   50  7.559352853363882074E-02 3.761888790426231033E+00
pair_coeff 45  50  1.685776999976196511E-01 3.595566559366237147E+00
pair_coeff 46   50  9.330803380147963122E-02 3.396925164817679033E+00
pair_coeff 47   50  1.009362234330945657E-01 3.550185734733046772E+00
pair_coeff 48  50  1.108586087340911325E-01 3.833972947222050731E+00
pair_coeff 49   50  1.460372374214344571E-01 3.328722912157391800E+00
pair_coeff 50  50  1.050269192461420475E-01 3.749911789275832241E+00
pair_coeff 1      51  2.533852259367075921E-01 2.858274758416932571E+00
pair_coeff 2     51  2.942576076375654770E-01 2.787915280603157520E+00
pair_coeff 3     51  2.065079265987836976E-01 2.957409074764294044E+00
pair_coeff 4     51  2.303502053970068741E-01 2.904041075908715186E+00
pair_coeff 5     51  1.806509080412127821E-01 3.061086572842267373E+00
pair_coeff 6      51  1.404672559692889122E-01 3.173174020534739626E+00
pair_coeff 7     51  1.213012792659237393E-01 3.251712767470937848E+00
pair_coeff 8     51  8.895954313830781168E-02 3.424188379397632431E+00
pair_coeff 9     51  1.482497981251104935E-01 3.144783276351368784E+00
pair_coeff 10     51  1.270613958791100284E-01 3.226666915174094541E+00
pair_coeff 11     51  1.375644548126654931E-01 3.184236878323198461E+00
pair_coeff 12      51  1.180008866429317071E-01 3.255796961067685569E+00
pair_coeff 13    51  1.873847419457483343E-02 4.433143047705374151E+00
pair_coeff 14    51  6.901385418853510367E-02 3.854435156020554309E+00
pair_coeff 15    51  1.435511175872953848E-01 3.471057663811270455E+00
pair_coeff 16    51  2.086290559640636977E-01 3.330729386206531473E+00
pair_coeff 17    51  2.518462909076551459E-01 3.313815075757705841E+00
pair_coeff 18   51  1.551032654961799484E-01 3.421394614377313736E+00
pair_coeff 19    51  1.588416013882605060E-01 3.327738935260058373E+00
pair_coeff 20     51  7.708469180103937057E-02 2.650516399769581533E+00
pair_coeff 21      51  0.000000000000000000E+00 0.000000000000000000E+00
pair_coeff 22    51  0.000000000000000000E+00 0.000000000000000000E+00
pair_coeff 23      51  3.092958024031092212E-01 3.129009975979999414E+00
pair_coeff 24   51  2.082100572999197041E-01 2.565817813773293210E+00
pair_coeff 25   51  1.145129867819162373E-01 2.834655654012085524E+00
pair_coeff 26     51  0.000000000000000000E+00 0.000000000000000000E+00
pair_coeff 27   51  4.821661475142233755E-01 2.230711026404406550E+00
pair_coeff 28   51  1.252726394642434959E-01 2.392138954579879240E+00
pair_coeff 29   51  1.595129710245168642E-01 2.885610818746235928E+00
pair_coeff 30     51  2.236384616749672039E-01 3.176956622085050697E+00
pair_coeff 31      51  1.512781041220645495E-01 2.950002714232202727E+00
pair_coeff 32     51  2.510423864477937528E-01 3.204774513981840212E+00
pair_coeff 33     51  3.828478578635327034E-01 3.287291518213585562E+00
pair_coeff 34   51  2.259638304960239485E-01 3.264902580528488585E+00
pair_coeff 35   51  1.661542465158737936E-01 3.066542217055081565E+00
pair_coeff 36    51  3.271596722949368652E-02 3.039504201881492840E+00
pair_coeff 37    51  1.845358392852482765E-01 3.481839186464868341E+00
pair_coeff 38   51  1.461747862551426580E-01 3.172394973980771304E+00
pair_coeff 39  51  2.508014425287490301E-01 3.190977291645715308E+00
pair_coeff 40   51  6.440249062037527172E-02 2.553121596328082887E+00
pair_coeff 41  51  2.551706261287441935E-01 3.246134378309362578E+00
pair_coeff 42  51  2.086290559640636977E-01 3.330729386206531473E+00
pair_coeff 43  51  2.934096839152270930E-01 2.790135478285444393E+00
pair_coeff 44   51  1.068950845510619613E-01 3.342255976436936837E+00
pair_coeff 45  51  2.383818806215697028E-01 3.194486730256854035E+00
pair_coeff 46   51  1.319447624152647047E-01 3.018003472754054783E+00
pair_coeff 47   51  1.427316113884563031E-01 3.154168065672212862E+00
pair_coeff 48  51  1.567626301313670423E-01 3.406299258224103177E+00
pair_coeff 49   51  2.065079265987836976E-01 2.957409074764294044E+00
pair_coeff 50  51  1.485161710364928667E-01 3.331614991042423313E+00
pair_coeff 51  51  2.100133300839540085E-01 2.959978546770596353E+00
pair_coeff 1      52  2.017250681962091674E-01 3.056690580133286872E+00
pair_coeff 2     52  1.238182113317307792E-01 3.315741788485744745E+00
pair_coeff 3     52  1.857777726664354978E-01 3.098935224280011003E+00
pair_coeff 4     52  1.857777726664354978E-01 3.098935224280011003E+00
pair_coeff 5     52  1.625163928514463119E-01 3.207574185829374258E+00
pair_coeff 6      52  1.263665486179660624E-01 3.325025553250206656E+00
pair_coeff 7     52  1.091245350954258148E-01 3.407322754347013039E+00
pair_coeff 8     52  8.002940155303392422E-02 3.588052148088892501E+00
pair_coeff 9     52  1.333678457168430698E-01 3.295276176356722875E+00
pair_coeff 10     52  1.143064264267728281E-01 3.381078338392825344E+00
pair_coeff 11     52  1.237551431273730129E-01 3.336617821622679614E+00
pair_coeff 12      52  1.061554500800334505E-01 3.411602396114444158E+00
pair_coeff 13    52  1.685742555441499188E-02 4.645290116282322579E+00
pair_coeff 14    52  6.208594665318631356E-02 4.038888287934027765E+00
pair_coeff 15    52  1.291408389420262981E-01 3.637164351620559177E+00
pair_coeff 16    52  1.876859739423346884E-01 3.490120695691245611E+00
pair_coeff 17    52  2.265648769503596782E-01 3.472396954700678773E+00
pair_coeff 18   52  1.395333325541259217E-01 3.585124688068666021E+00
pair_coeff 19    52  1.428963982095136920E-01 3.486987137383879443E+00
pair_coeff 20     52  6.934659887074805240E-02 2.777356268994485955E+00
pair_coeff 21      52  0.000000000000000000E+00 0.000000000000000000E+00
pair_coeff 22    52  0.000000000000000000E+00 0.000000000000000000E+00
pair_coeff 23      52  2.782473593721414562E-01 3.278748048225554435E+00
pair_coeff 24   52  5.886930177039987333E-01 2.221460288218898071E+00
pair_coeff 25   52  5.886930177039987333E-01 2.221460288218898071E+00
pair_coeff 26     52  0.000000000000000000E+00 0.000000000000000000E+00
pair_coeff 27   52  4.337642356672424815E-01 2.337461203423603529E+00
pair_coeff 28   52  1.126972330748762380E-01 2.506614228980403869E+00
pair_coeff 29   52  1.435003728738950268E-01 3.023701078785963059E+00
pair_coeff 30     52  2.011886709474526580E-01 3.328989170351303706E+00
pair_coeff 31      52  9.673967369602196054E-02 3.272112746045770404E+00
pair_coeff 32     52  2.258416718780438259E-01 3.358138281240213630E+00
pair_coeff 33     52  3.444159431332070587E-01 3.444604118245261581E+00
pair_coeff 34   52  2.032806092440548607E-01 3.421143762957048029E+00
pair_coeff 35   52  1.494749685650599014E-01 3.213290908675224156E+00
pair_coeff 36    52  2.943179771656875832E-02 3.184958995335595677E+00
pair_coeff 37    52  1.660113379868037031E-01 3.648461821628244284E+00
pair_coeff 38   52  1.315011324637096746E-01 3.324209225597718920E+00
pair_coeff 39  52  2.256249149459740866E-01 3.343680795916493587E+00
pair_coeff 40   52  5.793749159503105983E-02 2.675300659027595618E+00
pair_coeff 41  52  2.295555011028669046E-01 3.401477412620344865E+00
pair_coeff 42  52  1.876859739423346884E-01 3.490120695691245611E+00
pair_coeff 43  52  2.033892102840210714E-01 3.053469937559857073E+00
pair_coeff 44   52  9.616449617195252375E-02 3.502198888317909375E+00
pair_coeff 45  52  2.144520820837692021E-01 3.347358177927088452E+00
pair_coeff 46   52  1.186995796250189389E-01 3.162429353626820649E+00
pair_coeff 47   52  1.284035983003997405E-01 3.305110072670552235E+00
pair_coeff 48  52  1.410261230297450152E-01 3.569306947024517562E+00
pair_coeff 49   52  1.857777726664354978E-01 3.098935224280011003E+00
pair_coeff 50  52  1.336074789696210519E-01 3.491048680948393823E+00
pair_coeff 51  52  1.889312886718397255E-01 3.101627657794223669E+00
pair_coeff 52  52  1.699655532576562489E-01 3.250055355330133011E+00
pair_coeff 1      53   2.517150719017874350E-01 3.216286733597559344E+00
pair_coeff 2     53   8.204532982457217460E-02 3.877013547662570669E+00
pair_coeff 3     53   2.288318835470794788E-01 3.267785491497223305E+00
pair_coeff 4     53   2.288318835470794788E-01 3.267785491497223305E+00
pair_coeff 5     53   1.794601723072659361E-01 3.444501654585188533E+00
pair_coeff 6      53   1.780229229119614787E-01 3.428592407594721170E+00
pair_coeff 7     53   1.780229229119614787E-01 3.428592407594721170E+00
pair_coeff 8     53   1.780229229119614787E-01 3.428592407594721170E+00
pair_coeff 9     53   1.780229229119614787E-01 3.428592407594721170E+00
pair_coeff 10     53   1.780229229119614787E-01 3.428592407594721170E+00
pair_coeff 11     53   1.780229229119614787E-01 3.428592407594721170E+00
pair_coeff 12      53   1.172230999498745652E-01 3.663600408719620116E+00
pair_coeff 13    53   1.861496210673063006E-02 4.988414472922134912E+00
pair_coeff 14    53   6.855895881485152277E-02 4.337220773235620719E+00
pair_coeff 15    53   1.426049200441300291E-01 3.905823498176049124E+00
pair_coeff 16    53   2.072539060975635561E-01 3.747918462531858008E+00
pair_coeff 17    53   2.501862805523388245E-01 3.728885557404626905E+00
pair_coeff 18   53   1.540809235512614617E-01 3.849939924851243589E+00
pair_coeff 19    53   1.577946187139902257E-01 3.744553443938634096E+00
pair_coeff 20     53   7.657659860592054557E-02 2.982505691119483604E+00
pair_coeff 21      53   0.000000000000000000E+00 0.000000000000000000E+00
pair_coeff 22    53   0.000000000000000000E+00 0.000000000000000000E+00
pair_coeff 23      53   3.072571214561132247E-01 3.520932774360979955E+00
pair_coeff 24   53   6.500695009260647472E-01 2.385548453460561547E+00
pair_coeff 25   53   6.500695009260647472E-01 2.385548453460561547E+00
pair_coeff 26     53   0.000000000000000000E+00 0.000000000000000000E+00
pair_coeff 27   53   4.789880153488779158E-01 2.510117776321816319E+00
pair_coeff 28   53   1.244469220077783211E-01 2.691765290191502125E+00
pair_coeff 29   53   1.584615631091823018E-01 3.247046760402909182E+00
pair_coeff 30     53   2.221643793651205678E-01 3.574884956996347896E+00
pair_coeff 31      53   1.502809752047785663E-01 3.319504035055336644E+00
pair_coeff 32     53   2.493876749186909880E-01 3.606187166974876845E+00
pair_coeff 33     53   3.803243686103310317E-01 3.699039803071263677E+00
pair_coeff 34   53   2.244744208358758208E-01 3.673846548628572073E+00
pair_coeff 35   53   1.650590635421556873E-01 3.450640643166755339E+00
pair_coeff 36    53   3.250032440946476475E-02 3.420215993034873669E+00
pair_coeff 37    53   1.833194965587523484E-01 3.917955455811204413E+00
pair_coeff 38   53   1.452112951590650569E-01 3.569751941621275737E+00
pair_coeff 39  53   2.491483191485096838E-01 3.590661779490871286E+00
pair_coeff 40   53   6.397799041847561374E-02 2.872911743474042101E+00
pair_coeff 41  53   2.534887038728330655E-01 3.652727543314932213E+00
pair_coeff 42  53   2.072539060975635561E-01 3.747918462531858008E+00
pair_coeff 43  53   2.914757141438480414E-01 3.139612697248032713E+00
pair_coeff 44   53   1.061905002323981356E-01 3.760888810862612175E+00
pair_coeff 45  53   2.368106190837268310E-01 3.594610791325419719E+00
pair_coeff 46   53   1.310750665736078457E-01 3.396022199330606561E+00
pair_coeff 47   53   1.417908155082314992E-01 3.549242029754096084E+00
pair_coeff 48  53   1.557293507115795339E-01 3.832953806357374926E+00
pair_coeff 49   53   2.051467578661674285E-01 3.327838076089515873E+00
pair_coeff 50  53   1.475372470231036959E-01 3.748914993420465080E+00
pair_coeff 51  53   2.086290559640636977E-01 3.330729386206531473E+00
pair_coeff 52  53   1.876859739423346884E-01 3.490120695691245611E+00
pair_coeff 53   53   2.072539060975635561E-01 3.747918462531858008E+00
pair_coeff 1      54      5.058019451083491935E-01 3.259627155281799471E+00
pair_coeff 2     54      5.873904832288343592E-01 3.179387960698472515E+00
pair_coeff 3     54      4.598199500984992416E-01 3.311819874282714959E+00
pair_coeff 4     54      4.598199500984992416E-01 3.311819874282714959E+00
pair_coeff 5     54      3.606113195236524960E-01 3.490917340301991079E+00
pair_coeff 6      54      3.577232781590320432E-01 3.474793711469867041E+00
pair_coeff 7     54      3.577232781590320432E-01 3.474793711469867041E+00
pair_coeff 8     54      3.577232781590320432E-01 3.474793711469867041E+00
pair_coeff 9     54      3.577232781590320432E-01 3.474793711469867041E+00
pair_coeff 10     54      3.577232781590320432E-01 3.474793711469867041E+00
pair_coeff 11     54      3.577232781590320432E-01 3.474793711469867041E+00
pair_coeff 12      54      2.355507420287134279E-01 3.712968515405449921E+00
pair_coeff 13    54      3.740532488009395973E-02 5.055634843709905013E+00
pair_coeff 14    54      1.377639187878478000E-01 4.395666114966524596E+00
pair_coeff 15    54      2.865535440344418872E-01 3.958455633136796159E+00
pair_coeff 16    54      4.164606753319582411E-01 3.798422780106363472E+00
pair_coeff 17    54      5.027299572755441481E-01 3.779133400913722962E+00
pair_coeff 18   54      3.096136844230243934E-01 3.901819012016897847E+00
pair_coeff 19    54      3.170760672777966915E-01 3.795012416885348738E+00
pair_coeff 20     54      1.538747450918169224E-01 3.022695843626246770E+00
pair_coeff 21      54      0.000000000000000000E+00 0.000000000000000000E+00
pair_coeff 22    54      0.000000000000000000E+00 0.000000000000000000E+00
pair_coeff 23      54      6.174093927181751873E-01 3.568378392181247971E+00
pair_coeff 24   54      1.306264323148313311E+00 2.417694429390239375E+00
pair_coeff 25   54      1.306264323148313311E+00 2.417694429390239375E+00
pair_coeff 26     54      0.000000000000000000E+00 0.000000000000000000E+00
pair_coeff 27   54      9.624893257944396874E-01 2.543942360979170036E+00
pair_coeff 28   54      2.500664530681778186E-01 2.728037629200720460E+00
pair_coeff 29   54      3.184162403942434882E-01 3.290801682610015710E+00
pair_coeff 30     54      4.464221167515604050E-01 3.623057596546916947E+00
pair_coeff 31      54      3.019779824746237074E-01 3.364235340619288195E+00
pair_coeff 32     54      5.011252210957767295E-01 3.654781613128054829E+00
pair_coeff 33     54      7.642323678189105740E-01 3.748885466151363310E+00
pair_coeff 34   54      4.510639662060295652E-01 3.723352725101418237E+00
pair_coeff 35   54      3.316734066284257043E-01 3.497139053583150137E+00
pair_coeff 36    54      6.530688519666234815E-02 3.466304422228967397E+00
pair_coeff 37    54      3.683663327553086675E-01 3.970751072514505431E+00
pair_coeff 38   54      2.917908529999159173E-01 3.617855412260831294E+00
pair_coeff 39  54      5.006442542104175830E-01 3.639047016423571534E+00
pair_coeff 40   54      1.285588175284727575E-01 2.911625084894475357E+00
pair_coeff 41  54      5.093659212107068956E-01 3.701949134901025840E+00
pair_coeff 42  54      4.164606753319582411E-01 3.798422780106363472E+00
pair_coeff 43  54      5.856978767776226391E-01 3.181919913455625970E+00
pair_coeff 44   54      2.133815872199037178E-01 3.811567907744004557E+00
pair_coeff 45  54      4.758526013158087542E-01 3.643049242368777918E+00
pair_coeff 46   54      2.633851963143667985E-01 3.441784609948579376E+00
pair_coeff 47   54      2.849176640107791147E-01 3.597069123222504494E+00
pair_coeff 48  54      3.129260711536197559E-01 3.884604000517125399E+00
pair_coeff 49   54      4.122265241306839467E-01 3.372681685338640545E+00
pair_coeff 50  54      2.964646731576463523E-01 3.799432739545504756E+00
pair_coeff 51  54      4.192239325022028562E-01 3.375611956720639295E+00
pair_coeff 52  54      3.771404309338606820E-01 3.537151111574271312E+00
pair_coeff 53   54      4.164606753319582411E-01 3.798422780106363472E+00
pair_coeff 54      54      8.368454779149256950E-01 3.849607658402551813E+00
pair_coeff 1      55  3.175870057215742226E-01 3.004156156701421221E+00
pair_coeff 2     55  3.688154752311860185E-01 2.930205652875953248E+00
pair_coeff 3     55  2.887154597468856720E-01 3.052258307853131569E+00
pair_coeff 4     55  2.887154597468856720E-01 3.052258307853131569E+00
pair_coeff 5     55  2.264235444414708642E-01 3.217319135230157112E+00
pair_coeff 6      55  2.246101777309229275E-01 3.202459184531222913E+00
pair_coeff 7     55  2.246101777309229275E-01 3.202459184531222913E+00
pair_coeff 8     55  2.246101777309229275E-01 3.202459184531222913E+00
pair_coeff 9     55  2.246101777309229275E-01 3.202459184531222913E+00
pair_coeff 10     55  2.246101777309229275E-01 3.202459184531222913E+00
pair_coeff 11     55  2.246101777309229275E-01 3.202459184531222913E+00
pair_coeff 12      55  1.478995001499436579E-01 3.421967204782814687E+00
pair_coeff 13    55  2.348635714353968298E-02 4.659402998639063931E+00
pair_coeff 14    55  8.650032070345334279E-02 4.051158857442665351E+00
pair_coeff 15    55  1.799235509252720133E-01 3.648214441350505322E+00
pair_coeff 16    55  2.614906885166861650E-01 3.500724051252714020E+00
pair_coeff 17    55  3.156581412186418856E-01 3.482946463663709302E+00
pair_coeff 18   55  1.944027379041995962E-01 3.596016675800414841E+00
pair_coeff 19    55  1.990882790519060419E-01 3.497580972864009485E+00
pair_coeff 20     55  9.661611629313200666E-02 2.785794170892084587E+00
pair_coeff 21      55  0.000000000000000000E+00 0.000000000000000000E+00
pair_coeff 22    55  0.000000000000000000E+00 0.000000000000000000E+00
pair_coeff 23      55  3.876639902911756530E-01 3.288709231343011297E+00
pair_coeff 24   55  8.201877811694162634E-01 2.228209319371530661E+00
pair_coeff 25   55  8.201877811694162634E-01 2.228209319371530661E+00
pair_coeff 26     55  0.000000000000000000E+00 0.000000000000000000E+00
pair_coeff 27   55  6.043355625145997445E-01 2.344562657617333290E+00
pair_coeff 28   55  1.570137418991634226E-01 2.514229587944387223E+00
pair_coeff 29   55  1.999297577597621556E-01 3.032887402253098053E+00
pair_coeff 30     55  2.803031200614393148E-01 3.339102991308009027E+00
pair_coeff 31      55  1.896083717657784939E-01 3.100565748673854038E+00
pair_coeff 32     55  3.146505465202936724E-01 3.368340660276711862E+00
pair_coeff 33     55  4.798523843539687084E-01 3.455069189633579008E+00
pair_coeff 34   55  2.832176819438365079E-01 3.431537559306359508E+00
pair_coeff 35   55  2.082537742436552652E-01 3.223053226084240830E+00
pair_coeff 36    55  4.100541392375962879E-02 3.194635237397348781E+00
pair_coeff 37    55  2.312928247109353463E-01 3.659546234266159548E+00
pair_coeff 38   55  1.832119947291552531E-01 3.334308524577047184E+00
pair_coeff 39  55  3.143485531522378085E-01 3.353839251584496139E+00
pair_coeff 40   55  8.072054746493292909E-02 2.683428505195357694E+00
pair_coeff 41  55  3.198247837881820765E-01 3.411811460518701100E+00
pair_coeff 42  55  2.614906885166861650E-01 3.500724051252714020E+00
pair_coeff 43  55  3.677527078379324021E-01 2.932539165606559806E+00
pair_coeff 44   55  1.339797523846405214E-01 3.512838938705180603E+00
pair_coeff 45  55  2.987821701324951396E-01 3.357527805870319515E+00
pair_coeff 46   55  1.653764218541119713E-01 3.172037148255793415E+00
pair_coeff 47   55  1.788964013789737795E-01 3.315151346404604737E+00
pair_coeff 48  55  1.964825460064327234E-01 3.580150878787119240E+00
pair_coeff 49   55  2.588321155025055109E-01 3.108350117033022997E+00
pair_coeff 50  55  1.861466306346315491E-01 3.501654855827156965E+00
pair_coeff 51  55  2.632257047206049139E-01 3.111050730444828272E+00
pair_coeff 52  55  2.368019762580622356E-01 3.259929367013902457E+00
pair_coeff 53   55  2.614906885166861650E-01 3.500724051252714020E+00
pair_coeff 54      55  5.254452897086219210E-01 3.547897350510067938E+00
pair_coeff 55  55  3.299208273968177729E-01 3.269833376988799500E+00
pair_coeff 1      56      1.423703976828447626E-01 3.143928959384971744E+00
pair_coeff 2     56      1.653354984123153737E-01 3.066537799135407028E+00
pair_coeff 3     56      1.294276342571315797E-01 3.194269134171567437E+00
pair_coeff 4     56      1.294276342571315797E-01 3.194269134171567437E+00
pair_coeff 5     56      1.015029251390483361E-01 3.367009660356621747E+00
pair_coeff 6      56      1.006900148654086141E-01 3.351458328501519368E+00
pair_coeff 7     56      1.006900148654086141E-01 3.351458328501519368E+00
pair_coeff 8     56      1.006900148654086141E-01 3.351458328501519368E+00
pair_coeff 9     56      1.006900148654086141E-01 3.351458328501519368E+00
pair_coeff 10     56      1.006900148654086141E-01 3.351458328501519368E+00
pair_coeff 11     56      1.006900148654086141E-01 3.351458328501519368E+00
pair_coeff 12      56      6.630154972997068241E-02 3.581179283634555510E+00
pair_coeff 13    56      1.052864867392752299E-02 4.876188605638604123E+00
pair_coeff 14    56      3.877704325548127218E-02 4.239645007324696735E+00
pair_coeff 15    56      8.065754277175206377E-02 3.817953007077415251E+00
pair_coeff 16    56      1.172230999498745652E-01 3.663600408719620116E+00
pair_coeff 17    56      1.415057111515590771E-01 3.644995692608442361E+00
pair_coeff 18   56      8.714838644978782634E-02 3.763326663382849269E+00
pair_coeff 19    56      8.924885764206048899E-02 3.660311093966183371E+00
pair_coeff 20     56      4.331183156556572822E-02 2.915407359639444529E+00
pair_coeff 21      56      0.000000000000000000E+00 0.000000000000000000E+00
pair_coeff 22    56      0.000000000000000000E+00 0.000000000000000000E+00
pair_coeff 23      56      1.737850588051431666E-01 3.441721286142719993E+00
pair_coeff 24   56      3.676802214070164498E-01 2.331880049283297840E+00
pair_coeff 25   56      3.676802214070164498E-01 2.331880049283297840E+00
pair_coeff 26     56      0.000000000000000000E+00 0.000000000000000000E+00
pair_coeff 27   56      2.709162932331031781E-01 2.453646898458591963E+00
pair_coeff 28   56      7.038735361689542336E-02 2.631207833337182223E+00
pair_coeff 29   56      8.962608232733035307E-02 3.173996968575379718E+00
pair_coeff 30     56      1.256564845410435005E-01 3.494459690227617266E+00
pair_coeff 31      56      8.499913033581890653E-02 3.244824150032262100E+00
pair_coeff 32     56      1.410540186851716171E-01 3.525057684932574986E+00
pair_coeff 33     56      2.151119962679723108E-01 3.615821387226038297E+00
pair_coeff 34   56      1.269630472365963769E-01 3.591194913038851411E+00
pair_coeff 35   56      9.335763782481623640E-02 3.373010538257620983E+00
pair_coeff 36    56      1.838222906573640236E-02 3.343270360670348218E+00
pair_coeff 37    56      1.036857643481583074E-01 3.829812028396864854E+00
pair_coeff 38   56      8.213171219204309925E-02 3.489442153850004225E+00
pair_coeff 39  56      1.409186387258750672E-01 3.509881576780662371E+00
pair_coeff 40   56      3.618604110595938922E-02 2.808278980140014092E+00
pair_coeff 41  56      1.433735664130799115E-01 3.570551028367321855E+00
pair_coeff 42  56      1.172230999498745652E-01 3.663600408719620116E+00
pair_coeff 43  56      1.648590726968548470E-01 3.068979881992677683E+00
pair_coeff 44   56      6.006149585721085732E-02 3.676278959205930619E+00
pair_coeff 45  56      1.339404182663543053E-01 3.513741746503062924E+00
pair_coeff 46   56      7.413624147890124361E-02 3.319620862051439580E+00
pair_coeff 47   56      8.019708410451541203E-02 3.469393659665676477E+00
pair_coeff 48  56      8.808073916348332921E-02 3.746722686727856910E+00
pair_coeff 49   56      1.160312939550487005E-01 3.252970697627771912E+00
pair_coeff 50  56      8.344727382835046003E-02 3.664574520351796316E+00
pair_coeff 51  56      1.180008866429317071E-01 3.255796961067685569E+00
pair_coeff 52  56      1.061554500800334505E-01 3.411602396114444158E+00
pair_coeff 53   56      1.172230999498745652E-01 3.663600408719620116E+00
pair_coeff 54      56      2.355507420287134279E-01 3.712968515405449921E+00
pair_coeff 55  56      1.478995001499436579E-01 3.421967204782814687E+00
pair_coeff 56      56      6.630154972997068241E-02 3.581179283634555510E+00
pair_coeff 1      57     3.731714874568097806E-01 3.021498329079459921E+00
pair_coeff 2     57     4.333660288663451210E-01 2.947120929208018492E+00
pair_coeff 3     57     3.392468067789179420E-01 3.069878160802191225E+00
pair_coeff 4     57     3.392468067789179420E-01 3.069878160802191225E+00
pair_coeff 5     57     2.660524812168876263E-01 3.235891839220214727E+00
pair_coeff 6      57     2.639217367579247409E-01 3.220946106087509531E+00
pair_coeff 7     57     2.639217367579247409E-01 3.220946106087509531E+00
pair_coeff 8     57     2.639217367579247409E-01 3.220946106087509531E+00
pair_coeff 9     57     2.639217367579247409E-01 3.220946106087509531E+00
pair_coeff 10     57     2.639217367579247409E-01 3.220946106087509531E+00
pair_coeff 11     57     2.639217367579247409E-01 3.220946106087509531E+00
pair_coeff 12      57     1.737850588051431666E-01 3.441721286142719993E+00
pair_coeff 13    57     2.759696924716207450E-02 4.686300458613273712E+00
pair_coeff 14    57     1.016397168676915763E-01 4.074545090238809841E+00
pair_coeff 15    57     2.114139996840987690E-01 3.669274586167817986E+00
pair_coeff 16    57     3.072571214561132247E-01 3.520932774360979955E+00
pair_coeff 17    57     3.709050306349177539E-01 3.503052561617904459E+00
pair_coeff 18   57     2.284273523866607036E-01 3.616775497184223198E+00
pair_coeff 19    57     2.339329629063890137E-01 3.517771551839822930E+00
pair_coeff 20     57     1.135259918695059600E-01 2.801875799210098883E+00
pair_coeff 21      57     0.000000000000000000E+00 0.000000000000000000E+00
pair_coeff 22    57     0.000000000000000000E+00 0.000000000000000000E+00
pair_coeff 23      57     4.555134350088204109E-01 3.307694050845144673E+00
pair_coeff 24   57     9.637380899683938296E-01 2.241072162744267793E+00
pair_coeff 25   57     9.637380899683938296E-01 2.241072162744267793E+00
pair_coeff 26     57     0.000000000000000000E+00 0.000000000000000000E+00
pair_coeff 27   57     7.101071414248384395E-01 2.358097177009347067E+00
pair_coeff 28   57     1.844944867392919463E-01 2.528743548150760745E+00
pair_coeff 29   57     2.349217182881164212E-01 3.050395432258705242E+00
pair_coeff 30     57     3.293621287006147091E-01 3.358378720212484847E+00
pair_coeff 31      57     2.227938701879095817E-01 3.118464467275081642E+00
pair_coeff 32     57     3.697210854307304562E-01 3.387785170252723521E+00
pair_coeff 33     57     5.638367590708479593E-01 3.475014359704387434E+00
pair_coeff 34   57     3.327868009112045500E-01 3.451346887707100741E+00
pair_coeff 35   57     2.447026147257768958E-01 3.241659031413521852E+00
pair_coeff 36    57     4.818223363057468761E-02 3.213076993445320717E+00
pair_coeff 37    57     2.717739891131936147E-01 3.680671794426697563E+00
pair_coeff 38   57     2.152779911056781903E-01 3.353556576335538608E+00
pair_coeff 39  57     3.693662367992399664E-01 3.373200048891741964E+00
pair_coeff 40   57     9.484836036467202136E-02 2.698919204504523606E+00
pair_coeff 41  57     3.758009242872520916E-01 3.431506915542800851E+00
pair_coeff 42  57     3.072571214561132247E-01 3.520932774360979955E+00
pair_coeff 43  57     4.321172545720066149E-01 2.949467912669808012E+00
pair_coeff 44   57     1.574290590790217992E-01 3.533117597747393646E+00
pair_coeff 45  57     3.510754056218069463E-01 3.376909896193278637E+00
pair_coeff 46   57     1.943208135778947410E-01 3.190348451711801925E+00
pair_coeff 47   57     2.102070771175983122E-01 3.334288809009665400E+00
pair_coeff 48  57     2.308711711486143847E-01 3.600818111261308019E+00
pair_coeff 49   57     3.041332416110918979E-01 3.126293772665116322E+00
pair_coeff 50  57     2.187262507204020268E-01 3.521868952215817750E+00
pair_coeff 51  57     3.092958024031092212E-01 3.129009975979999414E+00
pair_coeff 52  57     2.782473593721414562E-01 3.278748048225554435E+00
pair_coeff 53   57     3.072571214561132247E-01 3.520932774360979955E+00
pair_coeff 54      57     6.174093927181751873E-01 3.568378392181247971E+00
pair_coeff 55  57     3.876639902911756530E-01 3.288709231343011297E+00
pair_coeff 56      57     1.737850588051431666E-01 3.441721286142719993E+00
pair_coeff 57     57     4.555134350088204109E-01 3.307694050845144673E+00
pair_coeff 1      58   0.000000000000000000E+00 0.000000000000000000E+00
pair_coeff 2     58   0.000000000000000000E+00 0.000000000000000000E+00
pair_coeff 3     58   0.000000000000000000E+00 0.000000000000000000E+00
pair_coeff 4     58   0.000000000000000000E+00 0.000000000000000000E+00
pair_coeff 5     58   0.000000000000000000E+00 0.000000000000000000E+00
pair_coeff 6      58   0.000000000000000000E+00 0.000000000000000000E+00
pair_coeff 7     58   0.000000000000000000E+00 0.000000000000000000E+00
pair_coeff 8     58   0.000000000000000000E+00 0.000000000000000000E+00
pair_coeff 9     58   0.000000000000000000E+00 0.000000000000000000E+00
pair_coeff 10     58   0.000000000000000000E+00 0.000000000000000000E+00
pair_coeff 11     58   0.000000000000000000E+00 0.000000000000000000E+00
pair_coeff 12      58   0.000000000000000000E+00 0.000000000000000000E+00
pair_coeff 13    58   0.000000000000000000E+00 0.000000000000000000E+00
pair_coeff 14    58   0.000000000000000000E+00 0.000000000000000000E+00
pair_coeff 15    58   0.000000000000000000E+00 0.000000000000000000E+00
pair_coeff 16    58   0.000000000000000000E+00 0.000000000000000000E+00
pair_coeff 17    58   0.000000000000000000E+00 0.000000000000000000E+00
pair_coeff 18   58   0.000000000000000000E+00 0.000000000000000000E+00
pair_coeff 19    58   0.000000000000000000E+00 0.000000000000000000E+00
pair_coeff 20     58   0.000000000000000000E+00 0.000000000000000000E+00
pair_coeff 21      58   0.000000000000000000E+00 0.000000000000000000E+00
pair_coeff 22    58   0.000000000000000000E+00 0.000000000000000000E+00
pair_coeff 23      58   0.000000000000000000E+00 0.000000000000000000E+00
pair_coeff 24   58   0.000000000000000000E+00 0.000000000000000000E+00
pair_coeff 25   58   0.000000000000000000E+00 0.000000000000000000E+00
pair_coeff 26     58   0.000000000000000000E+00 0.000000000000000000E+00
pair_coeff 27   58   0.000000000000000000E+00 0.000000000000000000E+00
pair_coeff 28   58   0.000000000000000000E+00 0.000000000000000000E+00
pair_coeff 29   58   0.000000000000000000E+00 0.000000000000000000E+00
pair_coeff 30     58   0.000000000000000000E+00 0.000000000000000000E+00
pair_coeff 31      58   0.000000000000000000E+00 0.000000000000000000E+00
pair_coeff 32     58   0.000000000000000000E+00 0.000000000000000000E+00
pair_coeff 33     58   0.000000000000000000E+00 0.000000000000000000E+00
pair_coeff 34   58   0.000000000000000000E+00 0.000000000000000000E+00
pair_coeff 35   58   0.000000000000000000E+00 0.000000000000000000E+00
pair_coeff 36    58   0.000000000000000000E+00 0.000000000000000000E+00
pair_coeff 37    58   0.000000000000000000E+00 0.000000000000000000E+00
pair_coeff 38   58   0.000000000000000000E+00 0.000000000000000000E+00
pair_coeff 39  58   0.000000000000000000E+00 0.000000000000000000E+00
pair_coeff 40   58   0.000000000000000000E+00 0.000000000000000000E+00
pair_coeff 41  58   0.000000000000000000E+00 0.000000000000000000E+00
pair_coeff 42  58   0.000000000000000000E+00 0.000000000000000000E+00
pair_coeff 43  58   0.000000000000000000E+00 0.000000000000000000E+00
pair_coeff 44   58   0.000000000000000000E+00 0.000000000000000000E+00
pair_coeff 45  58   0.000000000000000000E+00 0.000000000000000000E+00
pair_coeff 46   58   0.000000000000000000E+00 0.000000000000000000E+00
pair_coeff 47   58   0.000000000000000000E+00 0.000000000000000000E+00
pair_coeff 48  58   0.000000000000000000E+00 0.000000000000000000E+00
pair_coeff 49   58   0.000000000000000000E+00 0.000000000000000000E+00
pair_coeff 50  58   0.000000000000000000E+00 0.000000000000000000E+00
pair_coeff 51  58   0.000000000000000000E+00 0.000000000000000000E+00
pair_coeff 52  58   0.000000000000000000E+00 0.000000000000000000E+00
pair_coeff 53   58   0.000000000000000000E+00 0.000000000000000000E+00
pair_coeff 54      58   0.000000000000000000E+00 0.000000000000000000E+00
pair_coeff 55  58   0.000000000000000000E+00 0.000000000000000000E+00
pair_coeff 56      58   0.000000000000000000E+00 0.000000000000000000E+00
pair_coeff 57     58   0.000000000000000000E+00 0.000000000000000000E+00
pair_coeff 58   58   0.000000000000000000E+00 0.000000000000000000E+00
pair_coeff 1      59  3.175870057215742226E-01 3.004156156701421221E+00
pair_coeff 2     59  3.688154752311860185E-01 2.930205652875953248E+00
pair_coeff 3     59  2.887154597468856720E-01 3.052258307853131569E+00
pair_coeff 4     59  2.887154597468856720E-01 3.052258307853131569E+00
pair_coeff 5     59  2.264235444414708642E-01 3.217319135230157112E+00
pair_coeff 6      59  2.246101777309229275E-01 3.202459184531222913E+00
pair_coeff 7     59  2.246101777309229275E-01 3.202459184531222913E+00
pair_coeff 8     59  2.246101777309229275E-01 3.202459184531222913E+00
pair_coeff 9     59  2.246101777309229275E-01 3.202459184531222913E+00
pair_coeff 10     59  2.246101777309229275E-01 3.202459184531222913E+00
pair_coeff 11     59  2.246101777309229275E-01 3.202459184531222913E+00
pair_coeff 12      59  1.478995001499436579E-01 3.421967204782814687E+00
pair_coeff 13    59  2.348635714353968298E-02 4.659402998639063931E+00
pair_coeff 14    59  8.650032070345334279E-02 4.051158857442665351E+00
pair_coeff 15    59  1.799235509252720133E-01 3.648214441350505322E+00
pair_coeff 16    59  2.614906885166861650E-01 3.500724051252714020E+00
pair_coeff 17    59  3.156581412186418856E-01 3.482946463663709302E+00
pair_coeff 18   59  1.944027379041995962E-01 3.596016675800414841E+00
pair_coeff 19    59  1.990882790519060419E-01 3.497580972864009485E+00
pair_coeff 20     59  9.661611629313200666E-02 2.785794170892084587E+00
pair_coeff 21      59  0.000000000000000000E+00 0.000000000000000000E+00
pair_coeff 22    59  0.000000000000000000E+00 0.000000000000000000E+00
pair_coeff 23      59  3.876639902911756530E-01 3.288709231343011297E+00
pair_coeff 24   59  8.201877811694162634E-01 2.228209319371530661E+00
pair_coeff 25   59  8.201877811694162634E-01 2.228209319371530661E+00
pair_coeff 26     59  0.000000000000000000E+00 0.000000000000000000E+00
pair_coeff 27   59  6.043355625145997445E-01 2.344562657617333290E+00
pair_coeff 28   59  1.570137418991634226E-01 2.514229587944387223E+00
pair_coeff 29   59  1.999297577597621556E-01 3.032887402253098053E+00
pair_coeff 30     59  2.803031200614393148E-01 3.339102991308009027E+00
pair_coeff 31      59  1.896083717657784939E-01 3.100565748673854038E+00
pair_coeff 32     59  3.146505465202936724E-01 3.368340660276711862E+00
pair_coeff 33     59  4.798523843539687084E-01 3.455069189633579008E+00
pair_coeff 34   59  2.832176819438365079E-01 3.431537559306359508E+00
pair_coeff 35   59  2.082537742436552652E-01 3.223053226084240830E+00
pair_coeff 36    59  4.100541392375962879E-02 3.194635237397348781E+00
pair_coeff 37    59  2.312928247109353463E-01 3.659546234266159548E+00
pair_coeff 38   59  1.832119947291552531E-01 3.334308524577047184E+00
pair_coeff 39  59  3.143485531522378085E-01 3.353839251584496139E+00
pair_coeff 40   59  8.072054746493292909E-02 2.683428505195357694E+00
pair_coeff 41  59  3.198247837881820765E-01 3.411811460518701100E+00
pair_coeff 42  59  2.614906885166861650E-01 3.500724051252714020E+00
pair_coeff 43  59  3.677527078379324021E-01 2.932539165606559806E+00
pair_coeff 44   59  1.339797523846405214E-01 3.512838938705180603E+00
pair_coeff 45  59  2.987821701324951396E-01 3.357527805870319515E+00
pair_coeff 46   59  1.653764218541119713E-01 3.172037148255793415E+00
pair_coeff 47   59  1.788964013789737795E-01 3.315151346404604737E+00
pair_coeff 48  59  1.964825460064327234E-01 3.580150878787119240E+00
pair_coeff 49   59  2.588321155025055109E-01 3.108350117033022997E+00
pair_coeff 50  59  1.861466306346315491E-01 3.501654855827156965E+00
pair_coeff 51  59  2.632257047206049139E-01 3.111050730444828272E+00
pair_coeff 52  59  2.368019762580622356E-01 3.259929367013902457E+00
pair_coeff 53   59  2.614906885166861650E-01 3.500724051252714020E+00
pair_coeff 54      59  5.254452897086219210E-01 3.547897350510067938E+00
pair_coeff 55  59  3.299208273968177729E-01 3.269833376988799500E+00
pair_coeff 56      59  1.478995001499436579E-01 3.421967204782814687E+00
pair_coeff 57     59  3.876639902911756530E-01 3.288709231343011297E+00
pair_coeff 58   59  0.000000000000000000E+00 0.000000000000000000E+00
pair_coeff 59  59  3.299208273968177729E-01 3.269833376988799500E+00
pair_coeff 1      60  4.213927930353735807E-01 3.280869740545562685E+00
pair_coeff 2     60  4.893656869531686771E-01 3.200107637098358104E+00
pair_coeff 3     60  3.830843573048849926E-01 3.333402593012885884E+00
pair_coeff 4     60  3.830843573048849926E-01 3.333402593012885884E+00
pair_coeff 5     60  3.004318441315838584E-01 3.513667214970925379E+00
pair_coeff 6      60  2.980257643827635139E-01 3.497438510452560934E+00
pair_coeff 7     60  2.980257643827635139E-01 3.497438510452560934E+00
pair_coeff 8     60  2.980257643827635139E-01 3.497438510452560934E+00
pair_coeff 9     60  2.980257643827635139E-01 3.497438510452560934E+00
pair_coeff 10     60  2.980257643827635139E-01 3.497438510452560934E+00
pair_coeff 11     60  2.980257643827635139E-01 3.497438510452560934E+00
pair_coeff 12      60  1.962416041396830291E-01 3.737165469999586431E+00
pair_coeff 13    60  3.116305597093314839E-02 5.088581787981105720E+00
pair_coeff 14    60  1.147736244965881502E-01 4.424312125013074137E+00
pair_coeff 15    60  2.387329654277859925E-01 3.984252396783054539E+00
pair_coeff 16    60  3.469609574750426306E-01 3.823176629528523662E+00
pair_coeff 17    60  4.188334641408217873E-01 3.803761543847788751E+00
pair_coeff 18   60  2.579447874860245626E-01 3.927246681838655107E+00
pair_coeff 19    60  2.641618342654674101E-01 3.819744041394028677E+00
pair_coeff 20     60  1.281958466924380258E-01 3.042394376963291069E+00
pair_coeff 21      60  0.000000000000000000E+00 0.000000000000000000E+00
pair_coeff 22    60  0.000000000000000000E+00 0.000000000000000000E+00
pair_coeff 23      60  5.143749860195843127E-01 3.591633070903154312E+00
pair_coeff 24   60  1.088272547975307258E+00 2.433450243663300760E+00
pair_coeff 25   60  1.088272547975307258E+00 2.433450243663300760E+00
pair_coeff 26     60  0.000000000000000000E+00 0.000000000000000000E+00
pair_coeff 27   60  8.018673498307147263E-01 2.560520917340021185E+00
pair_coeff 28   60  2.083349068186673148E-01 2.745815911556464428E+00
pair_coeff 29   60  2.652783568454061824E-01 3.312247428395911797E+00
pair_coeff 30     60  3.719223788481205717E-01 3.646668612851485136E+00
pair_coeff 31      60  2.515833454197372587E-01 3.386159644432585214E+00
pair_coeff 32     60  4.174965292645979598E-01 3.678599370907961408E+00
pair_coeff 33     60  6.366958749718966137E-01 3.773316487051947554E+00
pair_coeff 34   60  3.757895879907217074E-01 3.747617352300228966E+00
pair_coeff 35   60  2.763231429740154454E-01 3.519929474384682955E+00
pair_coeff 36    60  5.440835296030136631E-02 3.488893897568208224E+00
pair_coeff 37    60  3.068926865963431116E-01 3.996627964011863376E+00
pair_coeff 38   60  2.430962627110289931E-01 3.641432526576616979E+00
pair_coeff 39  60  4.170958270111979060E-01 3.662762233791288402E+00
pair_coeff 40   60  1.071046873416893891E-01 2.930599783893948374E+00
pair_coeff 41  60  4.243620062988024966E-01 3.726074277561229664E+00
pair_coeff 42  60  3.469609574750426306E-01 3.823176629528523662E+00
pair_coeff 43  60  4.879555457568295340E-01 3.202656090277113510E+00
pair_coeff 44   60  1.777720783609382238E-01 3.836407422330105899E+00
pair_coeff 45  60  3.964414504152660723E-01 3.666790541745827525E+00
pair_coeff 46   60  2.194309938750947930E-01 3.464214292717012533E+00
pair_coeff 47   60  2.373700840491974606E-01 3.620510775874676401E+00
pair_coeff 48  60  2.607043970713927572E-01 3.909919482247368627E+00
pair_coeff 49   60  3.434334091567836644E-01 3.394661032931277411E+00
pair_coeff 50  60  2.469901072275602905E-01 3.824193170747873793E+00
pair_coeff 51  60  3.492630772436706166E-01 3.397610400527878660E+00
pair_coeff 52  60  3.142025472514550222E-01 3.560202285987479787E+00
pair_coeff 53   60  3.469609574750426306E-01 3.823176629528523662E+00
pair_coeff 54      60  6.971911766809288924E-01 3.874695073318440208E+00
pair_coeff 55  60  4.377580204247071283E-01 3.571018556827535662E+00
pair_coeff 56      60  1.962416041396830291E-01 3.737165469999586431E+00
pair_coeff 57     60  5.143749860195843127E-01 3.591633070903154312E+00
pair_coeff 58   60  0.000000000000000000E+00 0.000000000000000000E+00
pair_coeff 59  60  4.377580204247071283E-01 3.571018556827535662E+00
pair_coeff 60  60  5.808426402121911192E-01 3.899945979801004992E+00
pair_coeff 1      61  1.910810716445957014E-01 3.063480889575645350E+00
pair_coeff 2     61  2.219034625996930687E-01 2.988070044257751245E+00
pair_coeff 3     61  1.557302947388717884E-01 3.169732425659423480E+00
pair_coeff 4     61  1.737100651314506250E-01 3.112532940505829959E+00
pair_coeff 5     61  1.362311830710550009E-01 3.280853315316931695E+00
pair_coeff 6      61  1.351401432989809970E-01 3.265699916954241999E+00
pair_coeff 7     61  9.147486144193246738E-02 3.485165270484214428E+00
pair_coeff 8     61  6.708554049685398757E-02 3.670023545392655517E+00
pair_coeff 9     61  1.117970875851971996E-01 3.370558915160181357E+00
pair_coeff 10     61  9.581863977856053260E-02 3.458321283688134518E+00
pair_coeff 11     61  1.037391321796109073E-01 3.412845037342698173E+00
pair_coeff 12      61  8.898599273651414121E-02 3.489542683465986617E+00
pair_coeff 13    61  1.413092541937840431E-02 4.751414806224702581E+00
pair_coeff 14    61  5.204423883799429856E-02 4.131159331623315722E+00
pair_coeff 15    61  1.082537519026915002E-01 3.720257749325097230E+00
pair_coeff 16    61  1.573298657900891462E-01 3.569854784934338721E+00
pair_coeff 17    61  1.899205408620464608E-01 3.551726133492507209E+00
pair_coeff 18   61  1.169653758502452456E-01 3.667029205634201983E+00
pair_coeff 19    61  1.197845032314313607E-01 3.566649638438623260E+00
pair_coeff 20     61  5.813056172586479609E-02 2.840806788882025202E+00
pair_coeff 21      61  0.000000000000000000E+00 0.000000000000000000E+00
pair_coeff 22    61  0.000000000000000000E+00 0.000000000000000000E+00
pair_coeff 23      61  2.332439595082145267E-01 3.353653191135248957E+00
pair_coeff 24   61  1.570138934856017687E-01 2.750027377697141340E+00
pair_coeff 25   61  8.635572240102759589E-02 3.038166082187003791E+00
pair_coeff 26     61  0.000000000000000000E+00 0.000000000000000000E+00
pair_coeff 27   61  3.636077195786372451E-01 2.390862032921029723E+00
pair_coeff 28   61  9.446971546223430216E-02 2.563879469944211564E+00
pair_coeff 29   61  1.202907917456541853E-01 3.092779506921127464E+00
pair_coeff 30     61  1.686486525006622439E-01 3.405042104545177306E+00
pair_coeff 31      61  1.140807722516042760E-01 3.161794335073641271E+00
pair_coeff 32     61  1.893143061255012083E-01 3.434857145930944711E+00
pair_coeff 33     61  2.887105145415023166E-01 3.523298351516439553E+00
pair_coeff 34   61  1.704022431634715784E-01 3.499302029072553388E+00
pair_coeff 35   61  1.252990633735053816E-01 3.286700640433966480E+00
pair_coeff 36    61  2.467153345263567096E-02 3.257721466009803724E+00
pair_coeff 37    61  1.391608599006002867E-01 3.731813317421747822E+00
pair_coeff 38   61  1.102322943328560290E-01 3.400152958828419614E+00
pair_coeff 39  61  1.891326072040779016E-01 3.420069369902248191E+00
pair_coeff 40   61  4.856675001010610920E-02 2.736419651778293272E+00
pair_coeff 41  61  1.924274649899363476E-01 3.479186388103933769E+00
pair_coeff 42  61  1.573298657900891462E-01 3.569854784934338721E+00
pair_coeff 43  61  2.212640323687539434E-01 2.990449638154641487E+00
pair_coeff 44   61  8.061096393464804721E-02 3.582208911768658854E+00
pair_coeff 45  61  1.797668551567465633E-01 3.423830764109261793E+00
pair_coeff 46   61  9.950124955784923897E-02 3.234677119905607690E+00
pair_coeff 47   61  1.076357516932685832E-01 3.380617473265008499E+00
pair_coeff 48  61  1.182167241542694813E-01 3.650850097953766138E+00
pair_coeff 49   61  1.557302947388717884E-01 3.169732425659423480E+00
pair_coeff 50  61  1.119979628381875536E-01 3.570803970621432288E+00
pair_coeff 51  61  1.583737647834132234E-01 3.172486369577665499E+00
pair_coeff 52  61  1.424755250553842723E-01 3.324304994910451949E+00
pair_coeff 53   61  1.573298657900891462E-01 3.569854784934338721E+00
pair_coeff 54      61  3.161421822659541414E-01 3.617959641418169170E+00
pair_coeff 55  61  1.985019037967935274E-01 3.334404584847074471E+00
pair_coeff 56      61  8.898599273651414121E-02 3.489542683465986617E+00
pair_coeff 57     61  2.332439595082145267E-01 3.353653191135248957E+00
pair_coeff 58   61  0.000000000000000000E+00 0.000000000000000000E+00
pair_coeff 59  61  1.985019037967935274E-01 3.334404584847074471E+00
pair_coeff 60  61  2.633837976894515820E-01 3.641537434982425658E+00
pair_coeff 61  61  1.194317016050606556E-01 3.400250916053718875E+00
pair_coeff 1      62   3.022272329752703768E-01 3.080610167712853453E+00
pair_coeff 2     62   1.855061234448970586E-01 3.341688535145806327E+00
pair_coeff 3     62   2.783347785346825254E-01 3.123185389796383937E+00
pair_coeff 4     62   2.783347785346825254E-01 3.123185389796383937E+00
pair_coeff 5     62   2.434842638240715673E-01 3.232674486185113771E+00
pair_coeff 6      62   1.146462465840507594E-01 3.643241170326683598E+00
pair_coeff 7     62   9.900340316124917051E-02 3.733414477700354173E+00
pair_coeff 8     62   7.260679827666578767E-02 3.931440254472196472E+00
pair_coeff 9     62   1.209981842003316904E-01 3.610644682584218224E+00
pair_coeff 10     62   1.037046820823140647E-01 3.704658386908206591E+00
pair_coeff 11     62   1.122770449157311640E-01 3.655942855987651008E+00
pair_coeff 12      62   9.630969619111764968E-02 3.738103694920388520E+00
pair_coeff 13    62   1.529392539418433263E-02 5.089859289414571109E+00
pair_coeff 14    62   5.632757107994194185E-02 4.425422859853802571E+00
pair_coeff 15    62   1.171632257693376034E-01 3.985252653506883291E+00
pair_coeff 16    62   1.702783900034554321E-01 3.824136447770248637E+00
pair_coeff 17    62   2.055513348604910695E-01 3.804716487882746634E+00
pair_coeff 18   62   1.265918316646999775E-01 3.928232627132385968E+00
pair_coeff 19    62   1.296429781795231384E-01 3.820702997875749851E+00
pair_coeff 20     62   6.291480902858739843E-02 3.043158177829559552E+00
pair_coeff 21      62   0.000000000000000000E+00 0.000000000000000000E+00
pair_coeff 22    62   0.000000000000000000E+00 0.000000000000000000E+00
pair_coeff 23      62   2.524403469337466177E-01 3.592534759544063760E+00
pair_coeff 24   62   5.340926503741362241E-01 2.434061167552131533E+00
pair_coeff 25   62   5.340926503741362241E-01 2.434061167552131533E+00
pair_coeff 26     62   0.000000000000000000E+00 0.000000000000000000E+00
pair_coeff 27   62   3.935332733664513305E-01 2.561163742645501173E+00
pair_coeff 28   62   1.022447389261494227E-01 2.746505255642734511E+00
pair_coeff 29   62   1.301909351274692650E-01 3.313078976558852418E+00
pair_coeff 30     62   1.825287327352057842E-01 3.647584118305537970E+00
pair_coeff 31      62   8.776721851084816339E-02 3.585264437649749780E+00
pair_coeff 32     62   2.048952059406277393E-01 3.679522892660245681E+00
pair_coeff 33     62   3.124718968411722697E-01 3.774263787777763390E+00
pair_coeff 34   62   1.844266469887313464E-01 3.748558201192733641E+00
pair_coeff 35   62   1.356113963044227322E-01 3.520813161654846368E+00
pair_coeff 36    62   2.670204397705544519E-02 3.489769793277673227E+00
pair_coeff 37    62   1.506140430259195195E-01 3.997631327653401900E+00
pair_coeff 38   62   1.193046057156692125E-01 3.642346717497859210E+00
pair_coeff 39  62   2.046985528789223296E-01 3.663681779589916143E+00
pair_coeff 40   62   5.256387881532230411E-02 2.931335518442557131E+00
pair_coeff 41  62   2.082645832460674196E-01 3.727009718009888228E+00
pair_coeff 42  62   1.702783900034554321E-01 3.824136447770248637E+00
pair_coeff 43  62   1.845251754501273656E-01 3.345696810660210740E+00
pair_coeff 44   62   8.724538781296764522E-02 3.837370562196102064E+00
pair_coeff 45  62   1.945619829925733513E-01 3.667711098861439201E+00
pair_coeff 46   62   1.076903771128106951E-01 3.465083992548747993E+00
pair_coeff 47   62   1.164943630575195482E-01 3.621419714337055673E+00
pair_coeff 48  62   1.279461681314143506E-01 3.910901077503457834E+00
pair_coeff 49   62   1.685471714460022030E-01 3.395513271239786857E+00
pair_coeff 50  62   1.212155918393642284E-01 3.825153244194864577E+00
pair_coeff 51  62   1.714082037169344097E-01 3.398463379282643082E+00
pair_coeff 52  62   1.542015109432330056E-01 3.561096083849689897E+00
pair_coeff 53   62   1.702783900034554321E-01 3.824136447770248637E+00
pair_coeff 54      62   3.421612389871924731E-01 3.875667825396847732E+00
pair_coeff 55  62   2.148389590329646270E-01 3.571915070142120285E+00
pair_coeff 56      62   9.630969619111764968E-02 3.738103694920388520E+00
pair_coeff 57     62   2.524403469337466177E-01 3.592534759544063760E+00
pair_coeff 58   62   0.000000000000000000E+00 0.000000000000000000E+00
pair_coeff 59  62   2.148389590329646270E-01 3.571915070142120285E+00
pair_coeff 60  62   2.850607467204795409E-01 3.900925071183873882E+00
pair_coeff 61  62   2.134587638969343837E-01 3.350318751416838214E+00
pair_coeff 62   62   1.398995591837953467E-01 3.901904408370130639E+00
pair_coeff 1      63   1.498564773336243661E-01 3.117191049441867978E+00
pair_coeff 2     63   1.740291224406275705E-01 3.040458071326784140E+00
pair_coeff 3     63   1.362331612123857949E-01 3.167103100349917710E+00
pair_coeff 4     63   1.362331612123857949E-01 3.167103100349917710E+00
pair_coeff 5     63   1.068401230028258736E-01 3.338374534614535705E+00
pair_coeff 6      63   1.059844685129975872E-01 3.322955460872134559E+00
pair_coeff 7     63   1.059844685129975872E-01 3.322955460872134559E+00
pair_coeff 8     63   1.059844685129975872E-01 3.322955460872134559E+00
pair_coeff 9     63   1.059844685129975872E-01 3.322955460872134559E+00
pair_coeff 10     63   1.059844685129975872E-01 3.322955460872134559E+00
pair_coeff 11     63   1.059844685129975872E-01 3.322955460872134559E+00
pair_coeff 12      63   6.978779891046651973E-02 3.550722727391420364E+00
pair_coeff 13    63   1.108226307601466523E-02 4.834718491813685404E+00
pair_coeff 14    63   4.081600668577894941E-02 4.203588452656632057E+00
pair_coeff 15    63   8.489865468443062724E-02 3.785482781131149110E+00
pair_coeff 16    63   1.233868915625870588E-01 3.632442892420324476E+00
pair_coeff 17    63   1.489463241017357775E-01 3.613996402283818909E+00
pair_coeff 18   63   9.173079805373214601E-02 3.731321013537728604E+00
pair_coeff 19    63   9.394171562323941349E-02 3.629181552027246127E+00
pair_coeff 20     63   4.558924194158552046E-02 2.890612938252534736E+00
pair_coeff 21      63   0.000000000000000000E+00 0.000000000000000000E+00
pair_coeff 22    63   0.000000000000000000E+00 0.000000000000000000E+00
pair_coeff 23      63   1.829229752084453597E-01 3.412450766679025804E+00
pair_coeff 24   63   3.870134779566036798E-01 2.312048303858599940E+00
pair_coeff 25   63   3.870134779566036798E-01 2.312048303858599940E+00
pair_coeff 26     63   0.000000000000000000E+00 0.000000000000000000E+00
pair_coeff 27   63   2.851615365059002039E-01 2.432779572685431102E+00
pair_coeff 28   63   7.408844137221298753E-02 2.608830419916517318E+00
pair_coeff 29   63   9.433877542933588600E-02 3.147003341746720917E+00
pair_coeff 30     63   1.322637179773560601E-01 3.464740650865038685E+00
pair_coeff 31      63   8.946853036768810663E-02 3.217228165191134082E+00
pair_coeff 32     63   1.484708808708911920E-01 3.495078421360915844E+00
pair_coeff 33     63   2.264229539116222045E-01 3.585070213178863874E+00
pair_coeff 34   63   1.336389819799702339E-01 3.560653177709135697E+00
pair_coeff 35   63   9.826654251385204264E-02 3.344324377350627486E+00
pair_coeff 36    63   1.934879819235730755E-02 3.314837128566866298E+00
pair_coeff 37    63   1.091377396407426786E-01 3.797240946022814256E+00
pair_coeff 38   63   8.645033846078624407E-02 3.459765786709836810E+00
pair_coeff 39  63   1.483283824011816243E-01 3.480031380188026713E+00
pair_coeff 40   63   3.808876520011451883E-02 2.784395644531571179E+00
pair_coeff 41  63   1.509123943959561898E-01 3.540184861358758983E+00
pair_coeff 42  63   1.233868915625870588E-01 3.632442892420324476E+00
pair_coeff 43  63   1.735276454440603799E-01 3.042879385206016973E+00
pair_coeff 44   63   6.321963230446354942E-02 3.645013616697617920E+00
pair_coeff 45  63   1.409832351434577025E-01 3.483858720647509788E+00
pair_coeff 46   63   7.803445218669756434E-02 3.291388759862927227E+00
pair_coeff 47   63   8.441398431086369336E-02 3.439887797278931458E+00
pair_coeff 48  63   9.271217547193744135E-02 3.714858247335717678E+00
pair_coeff 49   63   1.221324183648120482E-01 3.225305429523958711E+00
pair_coeff 50  63   8.783507458389137879E-02 3.633408719606690873E+00
pair_coeff 51  63   1.242055756137348393E-01 3.228107656677332127E+00
pair_coeff 52  63   1.117372856834838307E-01 3.382588026258317004E+00
pair_coeff 53   63   1.233868915625870588E-01 3.632442892420324476E+00
pair_coeff 54      63   2.479364039733781833E-01 3.681391142293968244E+00
pair_coeff 55  63   1.556763094898980793E-01 3.392864686204393188E+00
pair_coeff 56      63   6.978779891046651973E-02 3.550722727391420364E+00
pair_coeff 57     63   1.829229752084453597E-01 3.412450766679025804E+00
pair_coeff 58   63   0.000000000000000000E+00 0.000000000000000000E+00
pair_coeff 59  63   1.556763094898980793E-01 3.392864686204393188E+00
pair_coeff 60  63   2.065603242057677535E-01 3.705382311070042789E+00
pair_coeff 61  63   9.366502883019156567E-02 3.459865461359993954E+00
pair_coeff 62   63   1.013738251713232619E-01 3.706312556747750619E+00
pair_coeff 63   63   7.345736105118740034E-02 3.520525192477496734E+00
pair_coeff 1      64   2.736888169216060152E-01 2.785635403427779710E+00
pair_coeff 2     64   3.178362756028405567E-01 2.717064020712530947E+00
pair_coeff 3     64   2.488080153832781527E-01 2.830238629172332043E+00
pair_coeff 4     64   2.488080153832781527E-01 2.830238629172332043E+00
pair_coeff 5     64   1.951263461191829751E-01 2.983293017984591344E+00
pair_coeff 6      64   1.935636304516219763E-01 2.969513972355486864E+00
pair_coeff 7     64   1.935636304516219763E-01 2.969513972355486864E+00
pair_coeff 8     64   1.935636304516219763E-01 2.969513972355486864E+00
pair_coeff 9     64   1.935636304516219763E-01 2.969513972355486864E+00
pair_coeff 10     64   1.935636304516219763E-01 2.969513972355486864E+00
pair_coeff 11     64   1.935636304516219763E-01 2.969513972355486864E+00
pair_coeff 12      64   1.274562198392401313E-01 3.173055093606844679E+00
pair_coeff 13    64   2.023997576918816488E-02 4.320480452686580541E+00
pair_coeff 14    64   7.454388879317874750E-02 3.756479673344732539E+00
pair_coeff 15    64   1.550537739325613118E-01 3.382845224091495684E+00
pair_coeff 16    64   2.253463645766736745E-01 3.246083208107312768E+00
pair_coeff 17    64   2.720265680439789557E-01 3.229598752975045173E+00
pair_coeff 18   64   1.675315878319233176E-01 3.334444296805542329E+00
pair_coeff 19    64   1.715694741126911615E-01 3.243168755602641173E+00
pair_coeff 20     64   8.326143729888541012E-02 2.583156954670584149E+00
pair_coeff 21      64   0.000000000000000000E+00 0.000000000000000000E+00
pair_coeff 22    64   0.000000000000000000E+00 0.000000000000000000E+00
pair_coeff 23      64   3.340794709935869244E-01 3.049490235709929387E+00
pair_coeff 24   64   7.068180354917007469E-01 2.066130534673785490E+00
pair_coeff 25   64   7.068180354917007469E-01 2.066130534673785490E+00
pair_coeff 26     64   0.000000000000000000E+00 0.000000000000000000E+00
pair_coeff 27   64   5.208018028082631590E-01 2.174020391731148916E+00
pair_coeff 28   64   1.353106534166275132E-01 2.331345837965244083E+00
pair_coeff 29   64   1.722946401549686202E-01 2.812276753150826814E+00
pair_coeff 30     64   2.415584640648248682E-01 3.096218379836923162E+00
pair_coeff 31      64   1.633999188005277048E-01 2.875032211922354808E+00
pair_coeff 32     64   2.711582472501199992E-01 3.123329316001555611E+00
pair_coeff 33     64   4.135252041325190309E-01 3.203749257330099631E+00
pair_coeff 34   64   2.440701631553644779E-01 3.181929305529774155E+00
pair_coeff 35   64   1.794680766699055796E-01 2.988610014058173281E+00
pair_coeff 36    64   3.533747609942639034E-02 2.962259135058813886E+00
pair_coeff 37    64   1.993225743407424921E-01 3.393352748295836552E+00
pair_coeff 38   64   1.578876754398131910E-01 3.091772660117416471E+00
pair_coeff 39  64   2.708979966538037076E-01 3.109882732220449419E+00
pair_coeff 40   64   6.956301970462222539E-02 2.488237314150513413E+00
pair_coeff 41  64   2.756172800531233036E-01 3.163638072888010022E+00
pair_coeff 42  64   2.253463645766736745E-01 3.246083208107312768E+00
pair_coeff 43  64   3.169204083120440441E-01 2.719227794943182452E+00
pair_coeff 44   64   1.154605171527362945E-01 3.257316864959954650E+00
pair_coeff 45  64   2.574832634447348223E-01 3.113302982989749168E+00
pair_coeff 46   64   1.425174091778202701E-01 2.941304819144806793E+00
pair_coeff 47   64   1.541686012426736752E-01 3.074008965101800328E+00
pair_coeff 48  64   1.693239162605719161E-01 3.319732569598804695E+00
pair_coeff 49   64   2.230552705147563208E-01 2.882250349383768562E+00
pair_coeff 50  64   1.604166738389782576E-01 3.246946306442084040E+00
pair_coeff 51  64   2.268415596685240676E-01 2.884754521583377418E+00
pair_coeff 52  64   2.040702281868096157E-01 3.022803803713983939E+00
pair_coeff 53   64   2.253463645766736745E-01 3.246083208107312768E+00
pair_coeff 54      64   4.528160696330849611E-01 3.289825146160248348E+00
pair_coeff 55  64   2.843178067782592411E-01 3.031987401164613072E+00
pair_coeff 56      64   1.274562198392401313E-01 3.173055093606844679E+00
pair_coeff 57     64   3.340794709935869244E-01 3.049490235709929387E+00
pair_coeff 58   64   0.000000000000000000E+00 0.000000000000000000E+00
pair_coeff 59  64   2.843178067782592411E-01 3.031987401164613072E+00
pair_coeff 60  64   3.772492971989485633E-01 3.311264527979406402E+00
pair_coeff 61  64   1.710641500693499129E-01 3.091861733013461677E+00
pair_coeff 62   64   1.851430299952198100E-01 3.312095829382690759E+00
pair_coeff 63   64   1.341580864437666998E-01 3.146069477063536013E+00
pair_coeff 64   64   2.450182241873804789E-01 2.811442217672497801E+00
pair_coeff 1      65   3.029649478331380430E-01 3.149235865916097055E+00
pair_coeff 2     65   1.859589305005138193E-01 3.416130186772377453E+00
pair_coeff 3     65   2.790141736360602920E-01 3.192759521648344645E+00
pair_coeff 4     65   2.790141736360602920E-01 3.192759521648344645E+00
pair_coeff 5     65   2.440785913349041991E-01 3.304687669158851371E+00
pair_coeff 6      65   1.476955362938090210E-01 3.571891367671221396E+00
pair_coeff 7     65   1.476955362938090210E-01 3.571891367671221396E+00
pair_coeff 8     65   1.476955362938090210E-01 3.571891367671221396E+00
pair_coeff 9     65   1.476955362938090210E-01 3.571891367671221396E+00
pair_coeff 10     65   1.476955362938090210E-01 3.571891367671221396E+00
pair_coeff 11     65   1.476955362938090210E-01 3.571891367671221396E+00
pair_coeff 12      65   9.725336675705262279E-02 3.816721592661593387E+00
pair_coeff 13    65   1.544377974741017144E-02 5.196906624050063428E+00
pair_coeff 14    65   5.687948509255881524E-02 4.518496105074461866E+00
pair_coeff 15    65   1.183112253160199800E-01 4.069068462579280343E+00
pair_coeff 16    65   1.719468274611148095E-01 3.904563742659835412E+00
pair_coeff 17    65   2.075653869462910639E-01 3.884735352042429479E+00
pair_coeff 18   65   1.278322154490358076E-01 4.010849219979507829E+00
pair_coeff 19    65   1.309132579896203075E-01 3.901058082191544596E+00
pair_coeff 20     65   6.353126672484969706E-02 3.107160334527358625E+00
pair_coeff 21      65   0.000000000000000000E+00 0.000000000000000000E+00
pair_coeff 22    65   0.000000000000000000E+00 0.000000000000000000E+00
pair_coeff 23      65   2.549138312710149123E-01 3.668091125393774021E+00
pair_coeff 24   65   5.393258463406160885E-01 2.485253105385875294E+00
pair_coeff 25   65   5.393258463406160885E-01 2.485253105385875294E+00
pair_coeff 26     65   0.000000000000000000E+00 0.000000000000000000E+00
pair_coeff 27   65   3.973892274549682413E-01 2.615028837263234429E+00
pair_coeff 28   65   1.032465627763134441E-01 2.804268358797742167E+00
pair_coeff 29   65   1.314665839799746549E-01 3.382757970360330546E+00
pair_coeff 30     65   1.843172026331671987E-01 3.724298254300499433E+00
pair_coeff 31      65   1.246796135270904909E-01 3.458243616680580335E+00
pair_coeff 32     65   2.069028290834072914E-01 3.756908748730711789E+00
pair_coeff 33     65   3.155335878587179343E-01 3.853642186220550769E+00
pair_coeff 34   65   1.862337132055325029E-01 3.827395972798371737E+00
pair_coeff 35   65   1.369401564205784128E-01 3.594861115296422938E+00
pair_coeff 36    65   2.696367841209141095E-02 3.563164858567346549E+00
pair_coeff 37    65   1.520898034616910699E-01 4.081707478711374293E+00
pair_coeff 38   65   1.204735871292430399E-01 3.718950703139931591E+00
pair_coeff 39  65   2.067042491574984375E-01 3.740734473418478423E+00
pair_coeff 40   65   5.307891507056041597E-02 2.992985877780431903E+00
pair_coeff 41  65   2.103052205329510593E-01 3.805394292865085681E+00
pair_coeff 42  65   1.719468274611148095E-01 3.904563742659835412E+00
pair_coeff 43  65   2.418208914499519191E-01 3.270833671068669624E+00
pair_coeff 44   65   8.810024363484980636E-02 3.918076190256606139E+00
pair_coeff 45  65   1.964683581952911540E-01 3.744848535285795421E+00
pair_coeff 46   65   1.087455589183283500E-01 3.537959878619287846E+00
pair_coeff 47   65   1.176358088917642403E-01 3.697583573880764529E+00
pair_coeff 48  65   1.291998221004829195E-01 3.993153162004202006E+00
pair_coeff 49   65   1.701986459179967992E-01 3.466925981245660537E+00
pair_coeff 50  65   1.224032976537840489E-01 3.905601923830262834E+00
pair_coeff 51  65   1.730877114197359179E-01 3.469938134462050350E+00
pair_coeff 52  65   1.557124224386972067E-01 3.635991247444840813E+00
pair_coeff 53   65   1.719468274611148095E-01 3.904563742659835412E+00
pair_coeff 54      65   3.455138348607721954E-01 3.957178902039792057E+00
pair_coeff 55  65   2.169440139762717490E-01 3.647037773160310081E+00
pair_coeff 56      65   9.725336675705262279E-02 3.816721592661593387E+00
pair_coeff 57     65   2.549138312710149123E-01 3.668091125393774021E+00
pair_coeff 58   65   0.000000000000000000E+00 0.000000000000000000E+00
pair_coeff 59  65   2.169440139762717490E-01 3.647037773160310081E+00
pair_coeff 60  65   2.878538552736386591E-01 3.982967345388086056E+00
pair_coeff 61  65   2.139798013299897272E-01 3.424952655417128344E+00
pair_coeff 62   65   1.412703359737776110E-01 3.983967279496484881E+00
pair_coeff 63   65   1.023671155538469490E-01 3.784261839422624174E+00
pair_coeff 64   65   1.869571155422015130E-01 3.381754146132254668E+00
pair_coeff 65   65   1.426545440355874161E-01 4.067756055235738799E+00
pair_coeff 1      66   4.547358060207790653E-01 2.888292173693689513E+00
pair_coeff 2     66   2.791154051078111320E-01 3.133071799912078959E+00
pair_coeff 3     66   4.187868466206033369E-01 2.928209486837023423E+00
pair_coeff 4     66   4.187868466206033369E-01 2.928209486837023423E+00
pair_coeff 5     66   3.663502189178132196E-01 3.030863338829969500E+00
pair_coeff 6      66   1.833232912906428147E-01 3.381325076733848078E+00
pair_coeff 7     66   1.833232912906428147E-01 3.381325076733848078E+00
pair_coeff 8     66   1.833232912906428147E-01 3.381325076733848078E+00
pair_coeff 9     66   1.833232912906428147E-01 3.381325076733848078E+00
pair_coeff 10     66   1.833232912906428147E-01 3.381325076733848078E+00
pair_coeff 11     66   1.833232912906428147E-01 3.381325076733848078E+00
pair_coeff 12      66   1.207132438148451475E-01 3.613093205741105152E+00
pair_coeff 13    66   1.916919498251404980E-02 4.919643091161947979E+00
pair_coeff 14    66   7.060020008554598880E-02 4.277426891393306008E+00
pair_coeff 15    66   1.468507699407754774E-01 3.851976954281385979E+00
pair_coeff 16    66   2.134245836275632802E-01 3.696248832273197671E+00
pair_coeff 17    66   2.576352058285252822E-01 3.677478318972391413E+00
pair_coeff 18   66   1.586684544241984962E-01 3.796863804219543059E+00
pair_coeff 19    66   1.624927193500039502E-01 3.692930204568213970E+00
pair_coeff 20     66   7.885655320479272035E-02 2.941388210084320498E+00
pair_coeff 21      66   0.000000000000000000E+00 0.000000000000000000E+00
pair_coeff 22    66   0.000000000000000000E+00 0.000000000000000000E+00
pair_coeff 23      66   3.164052463383004721E-01 3.472392418844832296E+00
pair_coeff 24   66   6.694243557407878464E-01 2.352660756519802554E+00
pair_coeff 25   66   6.694243557407878464E-01 2.352660756519802554E+00
pair_coeff 26     66   0.000000000000000000E+00 0.000000000000000000E+00
pair_coeff 27   66   4.932491727818341110E-01 2.475512739231275461E+00
pair_coeff 28   66   1.281521444557910949E-01 2.654656020425442797E+00
pair_coeff 29   66   1.631795210249484540E-01 3.202282257861074122E+00
pair_coeff 30     66   2.287789941124505622E-01 3.525600804795111287E+00
pair_coeff 31      66   1.547553682540754594E-01 3.273740620549896452E+00
pair_coeff 32     66   2.568128228971093829E-01 3.556471475605421873E+00
pair_coeff 33     66   3.916479623591037629E-01 3.648044024788604123E+00
pair_coeff 34   66   2.311578136403500405E-01 3.623198090106222846E+00
pair_coeff 35   66   1.699734522439199091E-01 3.403069350469131837E+00
pair_coeff 36    66   3.346797334466397600E-02 3.373064141271939320E+00
pair_coeff 37    66   1.887775625586927686E-01 3.863941658073751118E+00
pair_coeff 38   66   1.495347460074094303E-01 3.520538554301717582E+00
pair_coeff 39  66   2.565663406640278366E-01 3.541160124536279596E+00
pair_coeff 40   66   6.588284015242455716E-02 2.833305148764191372E+00
pair_coeff 41  66   2.610359539032401366E-01 3.602370236056116504E+00
pair_coeff 42  66   2.134245836275632802E-01 3.696248832273197671E+00
pair_coeff 43  66   3.001539710398187233E-01 3.096329304387715808E+00
pair_coeff 44   66   1.093521648109900685E-01 3.709040368522185549E+00
pair_coeff 45  66   2.438613038865376503E-01 3.545054694423006580E+00
pair_coeff 46   66   1.349776321912045940E-01 3.349203888541882890E+00
pair_coeff 47   66   1.460124266502917378E-01 3.500311396601526681E+00
pair_coeff 48  66   1.603659610572732153E-01 3.780111860100299648E+00
pair_coeff 49   66   2.112546981841710303E-01 3.281959766656903810E+00
pair_coeff 50  66   1.519299496369445057E-01 3.697231624767261415E+00
pair_coeff 51  66   2.148406765408863717E-01 3.284811216535175493E+00
pair_coeff 52  66   1.932740453273771308E-01 3.442005122285029639E+00
pair_coeff 53   66   2.134245836275632802E-01 3.696248832273197671E+00
pair_coeff 54      66   4.288601739941917956E-01 3.746056886190522572E+00
pair_coeff 55  66   2.692761857664918157E-01 3.452462297648919431E+00
pair_coeff 56      66   1.207132438148451475E-01 3.613093205741105152E+00
pair_coeff 57     66   3.164052463383004721E-01 3.472392418844832296E+00
pair_coeff 58   66   0.000000000000000000E+00 0.000000000000000000E+00
pair_coeff 59  66   2.692761857664918157E-01 3.452462297648919431E+00
pair_coeff 60  66   3.572912051620057983E-01 3.770469473586865128E+00
pair_coeff 61  66   3.211733836732513225E-01 3.141163244384396869E+00
pair_coeff 62   66   1.753481764061503856E-01 3.771416059562691103E+00
pair_coeff 63   66   1.270605531769710694E-01 3.582365233831064533E+00
pair_coeff 64   66   2.320557182122369999E-01 3.201331989309867510E+00
pair_coeff 65   66   1.770662891134783812E-01 3.850734566032467665E+00
pair_coeff 66   66   2.197789839249462973E-01 3.645291530929309243E+00
pair_coeff 1      67   1.691446126797976623E-01 2.985294938784757601E+00
pair_coeff 2     67   1.038204303792348571E-01 3.238295444039348325E+00
pair_coeff 3     67   1.557729521826987651E-01 3.026552867598893748E+00
pair_coeff 4     67   1.557729521826987651E-01 3.026552867598893748E+00
pair_coeff 5     67   1.362684993430692826E-01 3.132654330460733050E+00
pair_coeff 6      67   1.059571877347386532E-01 3.247362366332479766E+00
pair_coeff 7     67   9.149991811937653596E-02 3.327737337717295407E+00
pair_coeff 8     67   6.710391648259360353E-02 3.504245404295543764E+00
pair_coeff 9     67   1.118277109009218756E-01 3.218307850690846461E+00
pair_coeff 10     67   9.584488629822959793E-02 3.302105917046649353E+00
pair_coeff 11     67   1.037675482704622926E-01 3.258683872122532410E+00
pair_coeff 12      67   1.015608295071512290E-01 3.259466857310918897E+00
pair_coeff 13    67   1.612780240082512320E-02 4.438140034683073054E+00
pair_coeff 14    67   5.939874248642398880E-02 3.858779830233354247E+00
pair_coeff 15    67   1.235513646855942310E-01 3.474970199400187365E+00
pair_coeff 16    67   1.795625489418590515E-01 3.334483745402706312E+00
pair_coeff 17    67   2.167586951297953424E-01 3.317550369341032201E+00
pair_coeff 18   67   1.334940503517269006E-01 3.425251170357942243E+00
pair_coeff 19    67   1.367115557872998488E-01 3.331489923654913365E+00
pair_coeff 20     67   6.634513912854232698E-02 2.653504030845614370E+00
pair_coeff 21      67   0.000000000000000000E+00 0.000000000000000000E+00
pair_coeff 22    67   0.000000000000000000E+00 0.000000000000000000E+00
pair_coeff 23      67   2.662042561611659419E-01 3.132536959416989397E+00
pair_coeff 24   67   1.570569025311612521E-01 2.625806260038883178E+00
pair_coeff 25   67   8.637937685043090008E-02 2.900929489772888559E+00
pair_coeff 26     67   0.000000000000000000E+00 0.000000000000000000E+00
pair_coeff 27   67   3.637073185416969667E-01 2.282864724856101368E+00
pair_coeff 28   67   9.449559248627407981E-02 2.448066814448311757E+00
pair_coeff 29   67   1.203237416459956299E-01 2.953075978826793957E+00
pair_coeff 30     67   1.924808221665462171E-01 3.180537650420577123E+00
pair_coeff 31      67   8.111532584620605169E-02 3.195685452558168382E+00
pair_coeff 32     67   1.893661628589180523E-01 3.279701674707491854E+00
pair_coeff 33     67   2.887895977576290796E-01 3.364147914463202049E+00
pair_coeff 34   67   1.944822171822568335E-01 3.268582740519445640E+00
pair_coeff 35   67   1.253333851332271154E-01 3.138237526839545488E+00
pair_coeff 36    67   2.467829144763044116E-02 3.110567366814649404E+00
pair_coeff 37    67   1.391989786659572903E-01 3.563244078823733396E+00
pair_coeff 38   67   1.258094999745671128E-01 3.175970860479923275E+00
pair_coeff 39  67   2.158594165642706009E-01 3.194574123915934649E+00
pair_coeff 40   67   5.542984087504426033E-02 2.555999445121150515E+00
pair_coeff 41  67   2.196198790769573750E-01 3.249793383002357761E+00
pair_coeff 42  67   1.795625489418590515E-01 3.334483745402706312E+00
pair_coeff 43  67   1.705399805009815140E-01 2.982149521307246864E+00
pair_coeff 44   67   9.200230410212105470E-02 3.346023328270764097E+00
pair_coeff 45  67   2.051701662942675142E-01 3.198087518325217538E+00
pair_coeff 46   67   9.952850481329482413E-02 3.088563953776058746E+00
pair_coeff 47   67   1.228460332960751161E-01 3.157723407013565797E+00
pair_coeff 48  67   1.349222298646011453E-01 3.410138798895884893E+00
pair_coeff 49   67   1.557729521826987651E-01 3.026552867598893748E+00
pair_coeff 50  67   1.278246795834196148E-01 3.335370348482007863E+00
pair_coeff 51  67   1.584171463231851262E-01 3.029182413485949965E+00
pair_coeff 52  67   1.425145517695953212E-01 3.174143260066013106E+00
pair_coeff 53   67   1.795625489418590515E-01 3.334483745402706312E+00
pair_coeff 54      67   3.608170374432017602E-01 3.379416907025193595E+00
pair_coeff 55  67   2.265527122683737016E-01 3.114557470430365349E+00
pair_coeff 56      67   1.015608295071512290E-01 3.259466857310918897E+00
pair_coeff 57     67   2.662042561611659419E-01 3.132536959416989397E+00
pair_coeff 58   67   0.000000000000000000E+00 0.000000000000000000E+00
pair_coeff 59  67   2.265527122683737016E-01 3.114557470430365349E+00
pair_coeff 60  67   3.006032314691269858E-01 3.401440147220920363E+00
pair_coeff 61  67   1.194644161845258429E-01 3.246658638196322055E+00
pair_coeff 62   67   2.135172342494472131E-01 3.198981952667974138E+00
pair_coeff 63   67   1.069010720818995841E-01 3.231746341860607608E+00
pair_coeff 64   67   1.952376598350860082E-01 2.888006183129844473E+00
pair_coeff 65   67   2.140384144044120418E-01 3.270244578605614905E+00
pair_coeff 66   67   3.212613590771104533E-01 2.999274180977609561E+00
pair_coeff 67   67   1.194971397251269885E-01 3.100004256511835088E+00
pair_coeff 1      68     4.228207516674085675E-01 3.056859151858752899E+00
pair_coeff 2     68     4.910239828909634396E-01 2.981611307668237565E+00
pair_coeff 3     68     3.843825015158260361E-01 3.105805176400184386E+00
pair_coeff 4     68     3.843825015158260361E-01 3.105805176400184386E+00
pair_coeff 5     68     3.014499067379129427E-01 3.273761725414885415E+00
pair_coeff 6      68     2.990356735930130294E-01 3.258641081240354787E+00
pair_coeff 7     68     2.990356735930130294E-01 3.258641081240354787E+00
pair_coeff 8     68     2.990356735930130294E-01 3.258641081240354787E+00
pair_coeff 9     68     2.990356735930130294E-01 3.258641081240354787E+00
pair_coeff 10     68     2.990356735930130294E-01 3.258641081240354787E+00
pair_coeff 11     68     2.990356735930130294E-01 3.258641081240354787E+00
pair_coeff 12      68     1.969066010196180716E-01 3.482000009875157343E+00
pair_coeff 13    68     3.126865710011655919E-02 4.741144586247799886E+00
pair_coeff 14    68     1.151625537581669190E-01 4.122229798668242573E+00
pair_coeff 15    68     2.395419512585078570E-01 3.712216383328954539E+00
pair_coeff 16    68     3.481366916176150683E-01 3.562138516112925313E+00
pair_coeff 17    68     4.202527500668978289E-01 3.544049049891872194E+00
pair_coeff 18   68     2.588188757285546648E-01 3.659102893548325852E+00
pair_coeff 19    68     2.650569899912606497E-01 3.558940297566233646E+00
pair_coeff 20     68     1.286302593565866181E-01 2.834666362961839603E+00
pair_coeff 21      68     0.000000000000000000E+00 0.000000000000000000E+00
pair_coeff 22    68     0.000000000000000000E+00 0.000000000000000000E+00
pair_coeff 23      68     5.161180300714267588E-01 3.346404243736659900E+00
pair_coeff 24   68     1.091960338095528060E+00 2.267299599251422659E+00
pair_coeff 25   68     1.091960338095528060E+00 2.267299599251422659E+00
pair_coeff 26     68     0.000000000000000000E+00 0.000000000000000000E+00
pair_coeff 27   68     8.045846089363817288E-01 2.385694166082639622E+00
pair_coeff 28   68     2.090408838393064406E-01 2.558337624572998514E+00
pair_coeff 29   68     2.661772960911888974E-01 3.086094440015471729E+00
pair_coeff 30     68     3.731826988633197284E-01 3.397682079611450412E+00
pair_coeff 31      68     2.524358768718786838E-01 3.154960092081345202E+00
pair_coeff 32     68     4.189112847674477114E-01 3.427432675553883090E+00
pair_coeff 33     68     6.388534234294728220E-01 3.515682714787159213E+00
pair_coeff 34   68     3.770630126787305469E-01 3.491738260580458331E+00
pair_coeff 35   68     2.772595092901040115E-01 3.279596411493302277E+00
pair_coeff 36    68     5.459272459301211383E-02 3.250679875779549644E+00
pair_coeff 37    68     3.079326428276232264E-01 3.723746973975487151E+00
pair_coeff 38   68     2.439200342906357177E-01 3.392803501821101797E+00
pair_coeff 39  68     4.185092246687046047E-01 3.412676863417832607E+00
pair_coeff 40   68     1.074676291512047521E-01 2.730504859465051837E+00
pair_coeff 41  68     4.258000265972445297E-01 3.471666099725899457E+00
pair_coeff 42  68     3.481366916176150683E-01 3.562138516112925313E+00
pair_coeff 43  68     4.896090631997686571E-01 2.983985758054453097E+00
pair_coeff 44   68     1.783744882218230021E-01 3.574465939406219039E+00
pair_coeff 45  68     3.977848573281826949E-01 3.416430127342078293E+00
pair_coeff 46   68     2.201745718076525138E-01 3.227685340208292786E+00
pair_coeff 47   68     2.381744515327116618E-01 3.373310242361340361E+00
pair_coeff 48  68     2.615878367038697028E-01 3.642958757134699077E+00
pair_coeff 49   68     3.445971896229899079E-01 3.162881024422723453E+00
pair_coeff 50  68     2.478270737383122535E-01 3.563085650127790327E+00
pair_coeff 51  68     3.504466124968692586E-01 3.165629015669813917E+00
pair_coeff 52  68     3.152672741451525984E-01 3.317119483865758500E+00
pair_coeff 53   68     3.481366916176150683E-01 3.562138516112925313E+00
pair_coeff 54      68     6.995537233959522316E-01 3.610139393576149658E+00
pair_coeff 55  68     4.392414353153730744E-01 3.327197243460355836E+00
pair_coeff 56      68     1.969066010196180716E-01 3.482000009875157343E+00
pair_coeff 57     68     5.161180300714267588E-01 3.346404243736659900E+00
pair_coeff 58   68     0.000000000000000000E+00 0.000000000000000000E+00
pair_coeff 59  68     4.392414353153730744E-01 3.327197243460355836E+00
pair_coeff 60  68     5.828109208179663714E-01 3.633666223556641928E+00
pair_coeff 61  68     2.642763169106269738E-01 3.392901247311097990E+00
pair_coeff 62   68     2.860267218407508971E-01 3.634578464727707292E+00
pair_coeff 63   68     2.072602877620044470E-01 3.452386935315056249E+00
pair_coeff 64   68     3.785276683511555329E-01 3.085178649883229873E+00
pair_coeff 65   68     2.888292953006066366E-01 3.711019072424234899E+00
pair_coeff 66   68     3.585019450441149225E-01 3.513030089156019553E+00
pair_coeff 67   68     2.643487071424846513E-01 3.239640960354239319E+00
pair_coeff 68     68     5.847858712655799041E-01 3.385567464934501558E+00
pair_coeff 1      69      4.228207516674085675E-01 3.056859151858752899E+00
pair_coeff 2     69      4.910239828909634396E-01 2.981611307668237565E+00
pair_coeff 3     69      3.843825015158260361E-01 3.105805176400184386E+00
pair_coeff 4     69      3.843825015158260361E-01 3.105805176400184386E+00
pair_coeff 5     69      3.014499067379129427E-01 3.273761725414885415E+00
pair_coeff 6      69      2.990356735930130294E-01 3.258641081240354787E+00
pair_coeff 7     69      2.990356735930130294E-01 3.258641081240354787E+00
pair_coeff 8     69      2.990356735930130294E-01 3.258641081240354787E+00
pair_coeff 9     69      2.990356735930130294E-01 3.258641081240354787E+00
pair_coeff 10     69      2.990356735930130294E-01 3.258641081240354787E+00
pair_coeff 11     69      2.990356735930130294E-01 3.258641081240354787E+00
pair_coeff 12      69      1.969066010196180716E-01 3.482000009875157343E+00
pair_coeff 13    69      3.126865710011655919E-02 4.741144586247799886E+00
pair_coeff 14    69      1.151625537581669190E-01 4.122229798668242573E+00
pair_coeff 15    69      2.395419512585078570E-01 3.712216383328954539E+00
pair_coeff 16    69      3.481366916176150683E-01 3.562138516112925313E+00
pair_coeff 17    69      4.202527500668978289E-01 3.544049049891872194E+00
pair_coeff 18   69      2.588188757285546648E-01 3.659102893548325852E+00
pair_coeff 19    69      2.650569899912606497E-01 3.558940297566233646E+00
pair_coeff 20     69      1.286302593565866181E-01 2.834666362961839603E+00
pair_coeff 21      69      0.000000000000000000E+00 0.000000000000000000E+00
pair_coeff 22    69      0.000000000000000000E+00 0.000000000000000000E+00
pair_coeff 23      69      5.161180300714267588E-01 3.346404243736659900E+00
pair_coeff 24   69      1.091960338095528060E+00 2.267299599251422659E+00
pair_coeff 25   69      1.091960338095528060E+00 2.267299599251422659E+00
pair_coeff 26     69      0.000000000000000000E+00 0.000000000000000000E+00
pair_coeff 27   69      8.045846089363817288E-01 2.385694166082639622E+00
pair_coeff 28   69      2.090408838393064406E-01 2.558337624572998514E+00
pair_coeff 29   69      2.661772960911888974E-01 3.086094440015471729E+00
pair_coeff 30     69      3.731826988633197284E-01 3.397682079611450412E+00
pair_coeff 31      69      2.524358768718786838E-01 3.154960092081345202E+00
pair_coeff 32     69      4.189112847674477114E-01 3.427432675553883090E+00
pair_coeff 33     69      6.388534234294728220E-01 3.515682714787159213E+00
pair_coeff 34   69      3.770630126787305469E-01 3.491738260580458331E+00
pair_coeff 35   69      2.772595092901040115E-01 3.279596411493302277E+00
pair_coeff 36    69      5.459272459301211383E-02 3.250679875779549644E+00
pair_coeff 37    69      3.079326428276232264E-01 3.723746973975487151E+00
pair_coeff 38   69      2.439200342906357177E-01 3.392803501821101797E+00
pair_coeff 39  69      4.185092246687046047E-01 3.412676863417832607E+00
pair_coeff 40   69      1.074676291512047521E-01 2.730504859465051837E+00
pair_coeff 41  69      4.258000265972445297E-01 3.471666099725899457E+00
pair_coeff 42  69      3.481366916176150683E-01 3.562138516112925313E+00
pair_coeff 43  69      4.896090631997686571E-01 2.983985758054453097E+00
pair_coeff 44   69      1.783744882218230021E-01 3.574465939406219039E+00
pair_coeff 45  69      3.977848573281826949E-01 3.416430127342078293E+00
pair_coeff 46   69      2.201745718076525138E-01 3.227685340208292786E+00
pair_coeff 47   69      2.381744515327116618E-01 3.373310242361340361E+00
pair_coeff 48  69      2.615878367038697028E-01 3.642958757134699077E+00
pair_coeff 49   69      3.445971896229899079E-01 3.162881024422723453E+00
pair_coeff 50  69      2.478270737383122535E-01 3.563085650127790327E+00
pair_coeff 51  69      3.504466124968692586E-01 3.165629015669813917E+00
pair_coeff 52  69      3.152672741451525984E-01 3.317119483865758500E+00
pair_coeff 53   69      3.481366916176150683E-01 3.562138516112925313E+00
pair_coeff 54      69      6.995537233959522316E-01 3.610139393576149658E+00
pair_coeff 55  69      4.392414353153730744E-01 3.327197243460355836E+00
pair_coeff 56      69      1.969066010196180716E-01 3.482000009875157343E+00
pair_coeff 57     69      5.161180300714267588E-01 3.346404243736659900E+00
pair_coeff 58   69      0.000000000000000000E+00 0.000000000000000000E+00
pair_coeff 59  69      4.392414353153730744E-01 3.327197243460355836E+00
pair_coeff 60  69      5.828109208179663714E-01 3.633666223556641928E+00
pair_coeff 61  69      2.642763169106269738E-01 3.392901247311097990E+00
pair_coeff 62   69      2.860267218407508971E-01 3.634578464727707292E+00
pair_coeff 63   69      2.072602877620044470E-01 3.452386935315056249E+00
pair_coeff 64   69      3.785276683511555329E-01 3.085178649883229873E+00
pair_coeff 65   69      2.888292953006066366E-01 3.711019072424234899E+00
pair_coeff 66   69      3.585019450441149225E-01 3.513030089156019553E+00
pair_coeff 67   69      2.643487071424846513E-01 3.239640960354239319E+00
pair_coeff 68     69      5.847858712655799041E-01 3.385567464934501558E+00
pair_coeff 69      69      5.847858712655799041E-01 3.385567464934501558E+00

#           bond_id     k_harmonic               r0
bond_coeff 1    3.752390057361376989E+02 1.0000000000E+00
bond_coeff 2    4.469407265774378857E+02 1.0000000000E+00
bond_coeff 3    3.492741395793498782E+02 1.0900000000E+00
bond_coeff 4    1.109292543021032543E+03 1.1200000000E+00
bond_coeff 5    6.002423518164436018E+02 1.2300000000E+00
bond_coeff 6    5.004182600382409305E+02 1.2500000000E+00
bond_coeff 7    4.997323135755258363E+02 1.3200000000E+00
bond_coeff 8    3.750034177820267587E+02 1.3300000000E+00
bond_coeff 9    4.481438814531548473E+02 1.3300000000E+00
bond_coeff 10   4.988771510516252761E+02 1.3300000000E+00
bond_coeff 11   4.506166347992351575E+02 1.3400000000E+00
bond_coeff 12   5.021156787762906788E+02 1.3400000000E+00
bond_coeff 13   4.509063097514340939E+02 1.3600000000E+00
bond_coeff 14   5.006787762906309922E+02 1.3800000000E+00
bond_coeff 15   3.999040630975143245E+02 1.3900000000E+00
bond_coeff 16   4.987256214149139169E+02 1.3900000000E+00
bond_coeff 17   4.000573613766730432E+02 1.4000000000E+00
bond_coeff 18   3.997916347992352257E+02 1.4300000000E+00
bond_coeff 19   4.501321462715105213E+02 1.4300000000E+00
bond_coeff 20   3.002216180688336635E+02 1.4350000000E+00
bond_coeff 21   4.498431883365200861E+02 1.4700000000E+00
bond_coeff 22   2.999759082217973400E+02 1.4800000000E+00
bond_coeff 23   3.999678776290630822E+02 1.4800000000E+00
bond_coeff 24   4.502256214149139737E+02 1.4800000000E+00
bond_coeff 25   4.501075525812619276E+02 1.5000000000E+00
bond_coeff 26   2.998439770554493293E+02 1.5200000000E+00
bond_coeff 27   4.000342973231357746E+02 1.5300000000E+00
bond_coeff 28   2.998509560229445583E+02 1.6100000000E+00
bond_coeff 29   2.997267686424473823E+02 1.6300000000E+00
bond_coeff 30   2.059762906309751429E+02 1.7800000000E+00
bond_coeff 31   4.498158699808795404E+02 1.7800000000E+00
bond_coeff 32   4.498283460803058915E+02 1.8300000000E+00
bond_coeff 33   3.000447179732313998E+02 1.8700000000E+00
bond_coeff 34   5.996787762906310348E+01 1.9800000000E+00
bond_coeff 35   6.003824091778202643E+01 2.0000000000E+00
bond_coeff 36   5.003070745697896768E+02 2.0400000000E+00
bond_coeff 37   6.303570745697896882E+01 2.2100000000E+00
bond_coeff 38   5.544933078393881942E+02 1.0000000000E+00
bond_coeff 39   3.499282982791586960E+02 1.1000000000E+00
bond_coeff 40   5.997939651051625560E+02 1.7580000000E+00
bond_coeff 41   4.498287762906309695E+02 1.5300000000E+00
bond_coeff 42   4.443412045889101023E+02 1.9379900000E+00
bond_coeff 43   5.996787762906310491E+02 1.7600000000E+00
bond_coeff 44   5.010264698852772653E+02 1.2650000000E+00
bond_coeff 45   4.486555927342256496E+02 1.3500000000E+00
bond_coeff 46   5.551285014340344333E+02 1.6329900000E+00
bond_coeff 47   3.502490798279158639E+02 2.3383900000E+00
bond_coeff 48   6.001610301147227347E+02 2.9028300000E+00
bond_coeff 49   4.458838312619503199E+02 2.7938800000E+00
bond_coeff 50   4.438154039196940630E+02 2.9118900000E+00
bond_coeff 51   4.093283460803059484E+02 2.0770000000E+00
bond_coeff 52   6.001731835564053199E+02 2.8740700000E+00
bond_coeff 53   8.843212237093690931E+01 1.1000000000E+00
bond_coeff 54   5.616634799235181674E+01 1.8400000000E+00
bond_coeff 55   5.138623326959847191E+02 1.0100000000E+00
bond_coeff 56   3.107074569789675138E+02 1.4100000000E+00
bond_coeff 57   4.421606118546845323E+02 1.0200000000E+00
bond_coeff 58   2.390057361376672986E+02 1.4600000000E+00
bond_coeff 59   5.138623326959847191E+02 1.2900000000E+00
bond_coeff 60   4.421606118546845323E+02 9.7200000000E-01
bond_coeff 61   8.126195028680688210E+02 1.2200000000E+00
bond_coeff 62   4.660611854684512423E+02 1.2200000000E+00
bond_coeff 63   2.390057361376672986E+02 1.5400000000E+00
bond_coeff 64   1.792543021032504669E+02 1.5600000000E+00
bond_coeff 65   2.270554493307839437E+02 1.5400000000E+00
bond_coeff 66   1.063575525812619560E+02 1.7600000000E+00
bond_coeff 67   1.314531548757170185E+02 1.6900000000E+00
bond_coeff 68   2.031548757170172053E+02 1.7500000000E+00
bond_coeff 69   2.031548757170172053E+02 1.5100000000E+00
bond_coeff 70   1.434034416826003735E+02 1.5700000000E+00
bond_coeff 71   1.792543021032504669E+02 9.7100000000E-01
bond_coeff 72   1.912045889101338503E+02 1.5000000000E+00
bond_coeff 73   2.629063097514340370E+02 1.4500000000E+00
bond_coeff 74   5.497131931166347840E+02 1.5200000000E+00
bond_coeff 75   8.365200764818355594E+01 1.0300000000E+00
bond_coeff 76   1.912045889101338503E+02 1.7400000000E+00
bond_coeff 77   1.912045889101338503E+02 1.7200000000E+00
bond_coeff 78   2.270554493307839437E+02 1.6400000000E+00
bond_coeff 79   2.031548757170172053E+02 1.6700000000E+00
bond_coeff 80   1.912045889101338503E+02 1.6600000000E+00
bond_coeff 81   2.151051625239005887E+02 1.6500000000E+00
bond_coeff 82   5.138623326959847191E+02 1.3100000000E+00
bond_coeff 83   1.553537284894837569E+02 1.0100000000E+00
bond_coeff 84   3.585086042065009337E+01 1.8900000000E+00
bond_coeff 85   1.015774378585086026E+02 1.9300000000E+00
bond_coeff 86   1.553537284894837569E+02 1.3600000000E+00
bond_coeff 87   1.673040152963671119E+02 1.7900000000E+00
bond_coeff 88   1.147227533460803102E+02 1.3500000000E+00
bond_coeff 89   1.553537284894837569E+02 1.3900000000E+00
bond_coeff 90   2.031548757170172053E+02 1.3800000000E+00
bond_coeff 91   2.270554493307839437E+02 9.8300000000E-01
bond_coeff 92   1.553537284894837569E+02 1.3000000000E+00
bond_coeff 93   4.182600382409177655E+02 1.0800000000E+00
bond_coeff 94   1.553537284894837569E+02 1.9000000000E+00
bond_coeff 95   1.314531548757170185E+03 1.1600000000E+00
bond_coeff 96   1.434034416826003735E+02 1.8000000000E+00
bond_coeff 97   1.553537284894837569E+02 1.4200000000E+00
bond_coeff 98   4.780114722753345973E+02 9.8400000000E-01
bond_coeff 99   1.195028680688336493E+02 1.0800000000E+00
bond_coeff 100  1.195028680688336493E+02 1.9100000000E+00
bond_coeff 101  4.182600382409177655E+02 1.0300000000E+00
bond_coeff 102  5.258126195028680741E+02 1.2800000000E+00
bond_coeff 103  1.314531548757170185E+02 1.2200000000E+00
bond_coeff 104  1.434034416826003735E+02 1.1100000000E+00
bond_coeff 105  1.195028680688336635E+03 1.2100000000E+00
bond_coeff 106  4.660611854684512423E+02 1.0700000000E+00
bond_coeff 107  9.560229445506691945E+02 1.2100000000E+00
bond_coeff 108  6.931166347992351575E+02 1.2100000000E+00
bond_coeff 109  8.723709369024857097E+01 1.8500000000E+00
bond_coeff 110  3.943594646271510555E+02 1.1100000000E+00
bond_coeff 111  1.099426386233269568E+02 2.0900000000E+00
bond_coeff 112  1.314531548757170185E+02 1.8200000000E+00
bond_coeff 113  9.918738049713192595E+01 1.9600000000E+00
bond_coeff 114  5.616634799235181674E+01 1.8600000000E+00
bond_coeff 115  1.673040152963671119E+02 1.2100000000E+00
bond_coeff 116  1.673040152963671119E+02 1.2800000000E+00
bond_coeff 117  1.434034416826003735E+02 1.7100000000E+00
bond_coeff 118  1.314531548757170185E+02 1.6000000000E+00
bond_coeff 119  4.541108986615678873E+02 1.2100000000E+00
bond_coeff 120  4.182600382409177797E+01 1.6100000000E+00
bond_coeff 121  1.314531548757170185E+02 1.9400000000E+00
bond_coeff 122  1.553537284894837569E+02 1.5900000000E+00
bond_coeff 123  1.434034416826003735E+02 2.1000000000E+00
bond_coeff 124  1.195028680688336493E+02 2.1200000000E+00
bond_coeff 125  5.736137667304015508E+01 2.1300000000E+00
bond_coeff 126  2.031548757170172053E+02 1.2600000000E+00
bond_coeff 127  1.195028680688336635E+03 1.1400000000E+00
bond_coeff 128  1.912045889101338503E+02 1.2300000000E+00
bond_coeff 129  7.887189292543021111E+02 1.3000000000E+00
bond_coeff 130  2.390057361376672986E+02 1.3100000000E+00
bond_coeff 131  5.975143403441682466E+01 2.0400000000E+00
bond_coeff 132  8.245697896749521760E+01 1.3400000000E+00
bond_coeff 133  6.214149139579350276E+02 9.3800000000E-01
bond_coeff 134  3.107074569789675138E+02 1.1600000000E+00
bond_coeff 135  3.465583173996176214E+01 2.0700000000E+00
bond_coeff 136  6.094646271510516300E+01 1.1600000000E+00
bond_coeff 137  9.321223709369024846E+01 2.1600000000E+00
bond_coeff 138  4.302103250478011631E+01 2.2300000000E+00
bond_coeff 139  2.390057361376673128E+01 2.0500000000E+00
bond_coeff 140  8.962715105162524196E+02 1.1900000000E+00
bond_coeff 141  7.289674952198853362E+02 1.4700000000E+00
bond_coeff 142  3.943594646271510555E+02 1.5700000000E+00
bond_coeff 143  1.195028680688336635E+03 1.1800000000E+00
bond_coeff 144  5.497131931166347840E+01 1.8700000000E+00
bond_coeff 145  1.063575525812619617E+03 1.1700000000E+00
bond_coeff 146  2.151051625239005887E+02 1.1300000000E+00
bond_coeff 147  5.975143403441682466E+01 2.0200000000E+00
bond_coeff 148  1.792543021032504669E+02 1.0700000000E+00
bond_coeff 149  2.509560229445506820E+02 1.1400000000E+00
bond_coeff 150  1.553537284894837569E+02 1.0600000000E+00
bond_coeff 151  5.377629063097514290E+02 1.4600000000E+00
bond_coeff 152  8.126195028680688210E+02 1.1700000000E+00
bond_coeff 153  9.201720841300191012E+01 2.1500000000E+00
bond_coeff 154  2.390057361376672986E+02 1.0400000000E+00
bond_coeff 155  6.094646271510516300E+01 1.4000000000E+00
bond_coeff 156  1.314531548757170185E+03 1.1100000000E+00
bond_coeff 157  4.660611854684512423E+02 1.5600000000E+00
bond_coeff 158  7.528680688336520461E+02 1.4900000000E+00
bond_coeff 159  5.019120458891013641E+02 1.5400000000E+00
bond_coeff 160  3.585086042065009337E+01 2.1700000000E+00
bond_coeff 161  3.585086042065009337E+01 2.2700000000E+00
bond_coeff 162  6.692160611854684475E+02 1.4500000000E+00
bond_coeff 163  7.648183556405354011E+02 1.2500000000E+00
bond_coeff 164  8.484703632887188860E+02 1.2700000000E+00
bond_coeff 165  5.616634799235181390E+02 1.1600000000E+00
bond_coeff 166  1.434034416826003735E+03 1.1400000000E+00
bond_coeff 167  5.019120458891013641E+02 1.1700000000E+00
bond_coeff 168  5.377629063097514290E+02 1.1900000000E+00
bond_coeff 169  9.201720841300191296E+02 1.1400000000E+00
bond_coeff 170  2.270554493307839437E+02 1.2400000000E+00
bond_coeff 171  1.434034416826003735E+03 1.1300000000E+00
bond_coeff 172  8.962715105162523344E+01 2.9100000000E+00
bond_coeff 173  5.736137667304015508E+01 2.2400000000E+00
bond_coeff 174  4.182600382409177655E+02 7.4300000000E-01
bond_coeff 175  2.390057361376672986E+02 1.2000000000E+00
bond_coeff 176  1.111376673040152951E+02 2.3300000000E+00
bond_coeff 177  9.679732313575526348E+01 2.4200000000E+00
bond_coeff 178  8.365200764818355594E+01 1.3200000000E+00
bond_coeff 179  1.159177820267686457E+03 1.2000000000E+00
bond_coeff 180  1.314531548757170185E+03 1.2000000000E+00
bond_coeff 181  4.302103250478011773E+02 1.5800000000E+00
bond_coeff 182  5.377629063097514717E+01 1.4700000000E+00
bond_coeff 183  1.553537284894837445E+00 2.7700000000E+00
bond_coeff 184  5.138623326959846693E+00 2.2500000000E+00
bond_coeff 185  1.003824091778202643E+02 2.1800000000E+00
bond_coeff 186  5.019120458891013214E+01 1.5200000000E+00
bond_coeff 187  9.321223709369024846E+01 2.1900000000E+00
bond_coeff 188  2.748565965583173920E+01 1.4800000000E+00
bond_coeff 189  1.912045889101338389E+03 1.0700000000E+00
bond_coeff 190  8.604206500956022907E+00 2.8000000000E+00
bond_coeff 191  8.723709369024857097E+01 2.5200000000E+00
bond_coeff 192  6.692160611854685026E-01 2.7900000000E+00
bond_coeff 193  8.126195028680688210E+02 1.1600000000E+00
bond_coeff 194  1.792543021032504846E+00 2.6800000000E+00
bond_coeff 195  4.063097514340344105E+02 1.5900000000E+00
bond_coeff 196  1.195028680688336493E+02 1.1800000000E+00
bond_coeff 197  3.465583173996176214E+01 2.5400000000E+00
bond_coeff 198  1.792543021032504839E+03 1.1000000000E+00
bond_coeff 199  8.245697896749521760E+02 1.2900000000E+00
bond_coeff 200  3.346080305927342380E+01 2.4400000000E+00
bond_coeff 201  1.075525812619502943E+02 2.4100000000E+00
bond_coeff 202  1.123326959847036335E+02 2.3600000000E+00
bond_coeff 203  2.031548757170171982E+01 1.4300000000E+00
bond_coeff 204  2.270554493307839206E+00 2.5700000000E+00
bond_coeff 205  1.912045889101338503E+01 2.4700000000E+00
bond_coeff 206  7.648183556405353523E-01 2.7100000000E+00
bond_coeff 207  1.553537284894837512E+03 1.1200000000E+00
bond_coeff 208  3.704588910133843171E+00 2.7500000000E+00
bond_coeff 209  5.019120458891013641E+02 1.1400000000E+00
bond_coeff 210  7.170172084130018719E-01 2.8600000000E+00
bond_coeff 211  1.051625239005736212E+01 2.6400000000E+00
bond_coeff 212  1.912045889101338389E+03 9.8500000000E-01
bond_coeff 213  1.912045889101338547E+00 2.6100000000E+00
bond_coeff 214  7.409177820267686343E+00 2.6200000000E+00
bond_coeff 215  5.975143403441682466E+01 2.4600000000E+00
bond_coeff 216  3.585086042065009693E+00 2.6600000000E+00
bond_coeff 217  1.314531548757170265E+00 2.7200000000E+00
bond_coeff 218  5.855640535372849342E+01 1.6300000000E+00
bond_coeff 219  5.736137667304014940E+02 1.1200000000E+00
bond_coeff 220  3.704588910133843171E+01 2.3200000000E+00
bond_coeff 221  1.673040152963671190E+01 1.4400000000E+00
bond_coeff 222  1.553537284894837512E+03 1.1600000000E+00
bond_coeff 223  7.170172084130019385E+00 2.6900000000E+00
bond_coeff 224  1.003824091778202643E+01 2.4900000000E+00
bond_coeff 225  3.226577437858508812E+00 2.9200000000E+00
bond_coeff 226  8.245697896749522027E-01 2.2900000000E+00
bond_coeff 227  9.799235181644359471E+00 2.4000000000E+00
bond_coeff 228  1.039674952198852864E+00 2.3700000000E+00
bond_coeff 229  1.553537284894837445E+00 2.9400000000E+00
bond_coeff 230  5.855640535372849342E+00 2.9500000000E+00
bond_coeff 231  1.673040152963671146E+00 2.9600000000E+00
bond_coeff 232  1.314531548757170119E-02 2.5600000000E+00
bond_coeff 233  5.258126195028681060E+00 2.5900000000E+00
bond_coeff 234  1.553537284894837533E+01 2.3800000000E+00
bond_coeff 235  8.365200764818355310E+02 1.1200000000E+00
bond_coeff 236  1.912045889101338547E+00 2.5000000000E+00
bond_coeff 237  2.390057361376673128E+00 2.3000000000E+00
bond_coeff 238  5.855640535372848490E+02 1.0400000000E+00
bond_coeff 239  3.346080305927342291E+00 2.9900000000E+00
bond_coeff 240  9.679732313575526437E-01 2.3400000000E+00
bond_coeff 241  1.075525812619502863E+00 2.9800000000E+00
bond_coeff 242  2.270554493307839206E+00 2.7400000000E+00
bond_coeff 243  1.063575525812619617E+03 1.1600000000E+00
bond_coeff 244  8.126195028680688210E+02 1.5000000000E+00
bond_coeff 245  1.314531548757170265E+00 2.8400000000E+00
bond_coeff 246  3.226577437858508812E-01 2.8200000000E+00
bond_coeff 247  9.082217973231357746E+02 1.2300000000E+00
bond_coeff 248  4.660611854684512423E+02 1.0500000000E+00
bond_coeff 249  3.346080305927342291E+00 2.8800000000E+00
bond_coeff 250  1.434034416826003735E+03 1.1800000000E+00
bond_coeff 251  1.673040152963671062E+03 1.1500000000E+00
bond_coeff 252  6.333652007648183258E+00 2.9000000000E+00
bond_coeff 253  1.027724665391969438E+03 1.2400000000E+00
bond_coeff 254  4.182600382409177655E+02 1.9000000000E+00
bond_coeff 255  2.270554493307839493E+03 1.0800000000E+00
bond_coeff 256  1.434034416826003735E+03 1.2100000000E+00
bond_coeff 257  7.648183556405354011E+02 9.7500000000E-01

# Dummy bond for extra excluded interactions
bond_coeff 258  0.000000000000000000E+00 0.0000000000E+00

#            angle_id     k_harmonic               theta0
angle_coeff 1    4.531159764110539356E+01 9.0000000000E+01
angle_coeff 2    5.009172539172424621E+01 9.0000000000E+01
angle_coeff 3    4.777119165305969517E+01 9.6000000000E+01
angle_coeff 4    5.495507667712937661E+01 1.0000000000E+02
angle_coeff 5    4.755587910082016379E+01 1.0300000000E+02
angle_coeff 6    5.503449877865421058E+01 1.0400000000E+02
angle_coeff 7    5.017089249514589966E+01 1.0800000000E+02
angle_coeff 8    3.017313270271808179E+01 1.0950000000E+02
angle_coeff 9    3.388969514161131968E+01 1.0950000000E+02
angle_coeff 10   4.026093651823891406E+01 1.0950000000E+02
angle_coeff 11   4.503936558918574207E+01 1.0950000000E+02
angle_coeff 12   4.769404884227261476E+01 1.0950000000E+02
angle_coeff 13   5.512715332021083015E+01 1.0950000000E+02
angle_coeff 14   4.763495597414375737E+01 1.0960000000E+02
angle_coeff 15   5.511390518798809524E+01 1.1100000000E+02
angle_coeff 16   5.509974690868934033E+01 1.1300000000E+02
angle_coeff 17   4.824003116558784221E+00 1.1500000000E+02
angle_coeff 18   4.506986336232746027E+01 1.1500000000E+02
angle_coeff 19   5.979372060785910747E+01 1.1500000000E+02
angle_coeff 20   4.480849815265150937E+01 1.1600000000E+02
angle_coeff 21   5.977192415460783081E+01 1.1600000000E+02
angle_coeff 22   6.016393470016820544E+01 1.1700000000E+02
angle_coeff 23   3.487998772914675527E+01 1.2000000000E+02
angle_coeff 24   3.980949179939617721E+01 1.2000000000E+02
angle_coeff 25   4.518712718236594128E+01 1.2000000000E+02
angle_coeff 26   4.742781120730183630E+01 1.2000000000E+02
angle_coeff 27   5.011662889878671479E+01 1.2000000000E+02
angle_coeff 28   5.997562448553279069E+01 1.2000000000E+02
angle_coeff 29   6.983461614923112393E+01 1.2000000000E+02
angle_coeff 30   6.007257868741400131E+01 1.2100000000E+02
angle_coeff 31   6.009101308875088421E+01 1.2200000000E+02
angle_coeff 32   3.481463446143215634E+01 1.2300000000E+02
angle_coeff 33   5.989285210123679093E+01 1.2400000000E+02
angle_coeff 34   3.000747691187498489E+01 1.2500000000E+02
angle_coeff 35   6.007786695576940872E+01 1.2500000000E+02
angle_coeff 36   4.491393398374964363E+01 1.2600000000E+02
angle_coeff 37   4.999795670460907360E+01 1.2600000000E+02
angle_coeff 38   6.016599430023244111E+01 1.2600000000E+02
angle_coeff 39   5.011888465123802661E+01 1.3200000000E+02
angle_coeff 40   4.751869253127933490E+01 1.5500000000E+02
angle_coeff 41   2.849707999314575346E+01 1.8000000000E+02
angle_coeff 42   4.599505140337510767E+01 1.0950000000E+02
angle_coeff 43   5.247673834306662144E+01 1.0757000000E+02
angle_coeff 44   6.547197129315762254E+01 1.1130000000E+02
angle_coeff 45   5.501891643302533197E+01 9.7400000000E+01
angle_coeff 46   5.502468723625295155E+01 1.0675000000E+02
angle_coeff 47   4.750189404085062250E+01 1.0853000000E+02
angle_coeff 48   6.553349252783840484E+01 1.0950000000E+02
angle_coeff 49   5.495659489660530284E+01 1.0760000000E+02
angle_coeff 50   4.748167072974365510E+01 1.0950000000E+02
angle_coeff 51   5.499310277888685761E+01 1.1030000000E+02
angle_coeff 52   5.502340047659377120E+01 1.1140000000E+02
angle_coeff 53   6.004396397718814882E+01 1.1720000000E+02
angle_coeff 54   6.000230905626986555E+01 1.2140000000E+02
angle_coeff 55   4.824003116558784399E+01 1.8000000000E+02
angle_coeff 56   1.804601961048520877E+02 1.0900000000E+02
angle_coeff 57   1.922293393290815686E+02 1.0600000000E+02
angle_coeff 58   1.451527664321636166E+02 1.2600000000E+02
angle_coeff 59   1.451527664321636166E+02 9.6200000000E+01
angle_coeff 60   1.569219096563931259E+02 1.1400000000E+02
angle_coeff 61   2.039984825533110495E+02 1.1900000000E+02
angle_coeff 62   2.393059122259994922E+02 1.3000000000E+02
angle_coeff 63   2.981516283471469251E+02 1.0700000000E+02
angle_coeff 64   1.569219096563931259E+02 1.3400000000E+02
angle_coeff 65   2.393059122259994922E+02 1.0100000000E+02
angle_coeff 66   2.863824851229174442E+02 1.1300000000E+02
angle_coeff 67   3.687664876925238104E+02 1.3400000000E+02
angle_coeff 68   3.569973444682943295E+02 1.1900000000E+02
angle_coeff 69   3.334590580198353678E+02 1.2600000000E+02
angle_coeff 70   2.510750554502289731E+02 8.9600000000E+01
angle_coeff 71   3.805356309167532913E+02 1.1400000000E+02
angle_coeff 72   2.863824851229174442E+02 1.3500000000E+02
angle_coeff 73   1.451527664321636166E+02 8.8300000000E+01
angle_coeff 74   1.333836232079341642E+02 6.0000000000E+01
angle_coeff 75   3.805356309167532913E+02 1.7900000000E+02
angle_coeff 76   2.510750554502289731E+02 1.8000000000E+02
angle_coeff 77   4.707657289691792926E+02 1.7800000000E+02
angle_coeff 78   4.707657289691793068E+01 5.9900000000E+01
angle_coeff 79   4.707657289691793068E+01 6.0300000000E+01
angle_coeff 80   2.510750554502289731E+02 1.2400000000E+02
angle_coeff 81   7.061485934537689673E+02 1.1800000000E+02
angle_coeff 82   1.176914322422948231E+02 1.4400000000E+02
angle_coeff 83   6.276876386255725038E+02 1.2300000000E+02
angle_coeff 84   4.707657289691792926E+02 1.1800000000E+02
angle_coeff 85   3.334590580198353678E+02 9.4800000000E+01
angle_coeff 86   9.023009805242604386E+01 1.7500000000E+02
angle_coeff 87   1.569219096563931259E+02 8.2800000000E+01
angle_coeff 88   1.176914322422948231E+02 7.7600000000E+01
angle_coeff 89   2.393059122259994922E+02 1.4500000000E+02
angle_coeff 90   2.510750554502289731E+02 5.0800000000E+01
angle_coeff 91   3.805356309167532913E+02 1.0400000000E+02
angle_coeff 92   2.628441986744584824E+02 8.4400000000E+01
angle_coeff 93   2.157676257775405304E+02 6.3300000000E+01
angle_coeff 94   2.157676257775405304E+02 6.1000000000E+01
angle_coeff 95   2.981516283471469251E+02 1.7300000000E+02
angle_coeff 96   1.922293393290815686E+02 1.7300000000E+02
angle_coeff 97   8.238400256960638046E+01 5.0900000000E+01
angle_coeff 98   4.315352515550810608E+02 1.2700000000E+02
angle_coeff 99   6.276876386255724327E+01 6.7800000000E+01
angle_coeff 100  1.569219096563931259E+02 1.8000000000E+02
angle_coeff 101  5.884571612114741583E+02 1.1800000000E+02
angle_coeff 102  3.017313270271808179E+01 1.1000000000E+02
angle_coeff 103  2.275367690017699829E+02 9.4800000000E+01
angle_coeff 104  4.315352515550810608E+02 1.7300000000E+02
angle_coeff 105  3.452282012440647918E+01 7.8500000000E+01
angle_coeff 106  7.061485934537689957E+01 1.3800000000E+02
angle_coeff 107  7.061485934537689957E+01 1.6800000000E+02
angle_coeff 108  1.569219096563931259E+02 1.6700000000E+02
angle_coeff 109  1.804601961048520664E+01 1.4900000000E+02
angle_coeff 110  3.334590580198353678E+02 1.4400000000E+02
angle_coeff 111  3.569973444682943295E+02 1.4800000000E+02
angle_coeff 112  3.216899147956058300E+02 1.4400000000E+02
angle_coeff 113  3.569973444682943295E+02 1.4800000000E+02
angle_coeff 114  3.216899147956058300E+02 1.4700000000E+02
angle_coeff 115  3.334590580198353678E+02 1.4400000000E+02
angle_coeff 116  5.099962063832776039E+03 6.0800000000E+01
angle_coeff 117  1.451527664321636394E+03 6.8000000000E+01
angle_coeff 118  2.981516283471469251E+02 1.6100000000E+02
angle_coeff 119  1.569219096563931259E+02 1.5500000000E+02
angle_coeff 120  3.099207715713764060E+02 1.5400000000E+02
angle_coeff 121  2.157676257775405304E+02 7.5300000000E+01
angle_coeff 122  3.099207715713764060E+02 6.4700000000E+01
angle_coeff 123  5.492266837973758129E+02 1.7300000000E+02
angle_coeff 124  3.334590580198353564E+03 4.5800000000E+01
angle_coeff 125  8.630705031101621216E+02 1.2300000000E+02
angle_coeff 126  5.492266837973758129E+02 1.2300000000E+02
angle_coeff 127  4.707657289691792926E+02 1.6600000000E+02
angle_coeff 128  3.805356309167532913E+02 1.6600000000E+02
angle_coeff 129  2.039984825533110495E+02 1.3900000000E+02
angle_coeff 130  6.669181160396708208E+01 1.6100000000E+02
angle_coeff 131  7.453790708678672772E+00 4.4900000000E+01
angle_coeff 132  2.510750554502289944E+01 8.4800000000E+01
angle_coeff 133  1.922293393290815686E+02 1.6100000000E+02
angle_coeff 134  3.334590580198353678E+02 7.0400000000E+01
angle_coeff 135  6.276876386255725038E+02 1.7300000000E+02
angle_coeff 136  1.922293393290815500E+00 5.1600000000E+01
angle_coeff 137  2.157676257775405304E+01 7.3300000000E+01
angle_coeff 138  7.453790708678672772E+00 1.7400000000E+02
angle_coeff 139  4.707657289691792926E+02 1.3200000000E+02
angle_coeff 140  1.451527664321636166E+02 6.9900000000E+01
angle_coeff 141  1.569219096563931082E+01 1.4400000000E+02
angle_coeff 142  1.922293393290815629E+03 9.7900000000E+01
angle_coeff 143  3.923047741409827722E+02 1.5500000000E+02
angle_coeff 144  5.884571612114741583E+02 1.0400000000E+02
angle_coeff 145  1.176914322422948231E+02 1.4900000000E+02
angle_coeff 146  5.099962063832776380E+02 1.5700000000E+02
angle_coeff 147  2.863824851229174442E+02 1.6600000000E+02
angle_coeff 148  3.334590580198353678E+02 8.9800000000E+01
angle_coeff 149  3.923047741409827722E+02 7.9100000000E+01
angle_coeff 150  6.669181160396707128E+03 4.5200000000E+01
angle_coeff 151  4.707657289691792926E+02 1.0100000000E+02
angle_coeff 152  7.453790708678671990E+02 1.2500000000E+02
angle_coeff 153  1.686910528806225784E+02 4.9600000000E+01
angle_coeff 154  5.099962063832776380E+02 1.1200000000E+02
angle_coeff 155  4.707657289691792926E+02 1.0700000000E+02
angle_coeff 156  2.981516283471469251E+02 5.9600000000E+01
angle_coeff 157  2.393059122259994922E+02 7.0200000000E+01
angle_coeff 158  3.923047741409827722E+03 1.0000000000E+02
angle_coeff 159  3.923047741409827722E+03 1.0000000000E+02
angle_coeff 160  1.059222890180653621E+03 4.6300000000E+01
angle_coeff 161  1.176914322422948317E+03 4.6300000000E+01
angle_coeff 162  4.315352515550810608E+02 9.4100000000E+01
angle_coeff 163  5.099962063832776380E+02 6.9600000000E+01
angle_coeff 164  4.707657289691792926E+02 1.3900000000E+02
angle_coeff 165  6.669181160396707355E+02 1.3200000000E+02

#               dihedral_id     k                         n phi0
dihedral_coeff 1    6.381453154875716960E-01 -1  1
dihedral_coeff 2    8.150095602294454844E-01 -1  1
dihedral_coeff 3    1.187858508604206387E+00 -1  1
dihedral_coeff 4    1.400573613766730396E+00 -1  1
dihedral_coeff 5    2.234703632887188984E+00 -1  1
dihedral_coeff 6    2.258604206500955947E+00 -1  1
dihedral_coeff 7    6.668260038240917398E-01  1  1
dihedral_coeff 8    1.278680688336519822E+00  1  1
dihedral_coeff 9    3.656787762906309469E-01 -1  2
dihedral_coeff 10   1.400573613766730396E+00 -1  2
dihedral_coeff 11   1.699330783938814537E+00 -1  2
dihedral_coeff 12   3.991395793499043609E+00 -1  2
dihedral_coeff 13   5.736137667304014975E+00 -1  2
dihedral_coeff 14   8.006692160611853737E+00 -1  2
dihedral_coeff 15   9.990439770554491616E+00 -1  2
dihedral_coeff 16   0.000000000000000000E+00  1  2
dihedral_coeff 17   9.990439770554492005E-02  1  2
dihedral_coeff 18   4.995219885277246141E-01  1  2
dihedral_coeff 19   7.504780114722753304E-01  1  2
dihedral_coeff 20   1.216539196940726431E+00  1  2
dihedral_coeff 21   3.991395793499043609E+00  1  2
dihedral_coeff 22   2.509560229445506607E-01  1  3
dihedral_coeff 23   3.011472275334607929E-01  1  3
dihedral_coeff 24   3.107074569789675111E-01  1  3
dihedral_coeff 25   6.046845124282982376E-01  1  3
dihedral_coeff 26   7.002868068833651982E-01  1  3
dihedral_coeff 27   7.624282982791585894E-01  1  3
dihedral_coeff 28   8.723709369024855720E-01  1  3
dihedral_coeff 29   9.010516252390057268E-01  1  3
dihedral_coeff 30   9.321223709369024224E-01  1  3
dihedral_coeff 31   9.990439770554492283E-01  1  3
dihedral_coeff 32   1.120936902485659692E+00  1  3
dihedral_coeff 33   1.300191204588910132E+00  1  3
dihedral_coeff 34   1.414913957934990307E+00  1  3
dihedral_coeff 35   1.837954110898661453E+00  1  3
dihedral_coeff 36   2.060229445506692070E+00  1  3
dihedral_coeff 37   2.270554493307839206E+00  1  3
dihedral_coeff 38   0.000000000000000000E+00  1  4
dihedral_coeff 39   2.390057361376672906E-01 -1  6
dihedral_coeff 40   2.390057361376672906E-01  1  6
dihedral_coeff 41   9.010516252390057268E-01  1  6
dihedral_coeff 42   8.365200764818354617E-01 -1  2
dihedral_coeff 43   6.692160611854683916E-01  1  3
dihedral_coeff 44   1.673040152963670979E-01 -1  6
dihedral_coeff 45   9.560229445506691903E-02  1  6
dihedral_coeff 46   2.390057361376672906E-01 -1  3

# Dummy dihedral for 1-4 interactions
dihedral_coeff 47 0.0 1 1

#               improper_id     k                        xi0
improper_coeff 1    2.000754348119011894E+01 0.0000000000E+00
improper_coeff 2    4.001508696238023788E+01 3.5264390000E+01
improper_coeff 3    8.003017392476047576E+01 0.0000000000E+00
improper_coeff 4    2.000754348119011894E+01 1.8000000000E+02
improper_coeff 5    4.001508696238023788E+01 -3.5264390000E+01

# ------------------------------- Run Section -------------------------------


variable mytemp equal temp
variable myvol equal vol
variable mypress equal press

fix myat1 all ave/time 100 10 10000 v_mytemp file temperature_aftercooling_2.dat
fix myat2 all ave/time 100 10 10000 v_myvol file volume_aftercooling_2.dat
fix myat3 all ave/time 100 10 10000 v_mypress file pressure_aftercooling_2.dat


timestep        0.5 # 0.5 fs
fix fxnpt all npt temp 300.0 300.0 50.0 iso 1 1 500.0
thermo 2500
run             4000000 # 2 ns =
PPPM initialization ...
  using 12-bit tables for long-range coulomb (src/kspace.cpp:342)
  G vector (1/distance) = 0.19331194
  grid = 15 15 15
  stencil order = 5
  estimated absolute RMS force accuracy = 0.02811399
  estimated relative force accuracy = 8.4664447e-05
  using double precision FFTW3
  3d grid and FFT values/proc = 1690 256
Generated 0 of 2346 mixed pair_coeff terms from geometric mixing rule
Neighbor list info ...
  update: every = 1 steps, delay = 0 steps, check = yes
  max neighbors/atom: 2000, page size: 100000
  master list distance cutoff = 14
  ghost atom cutoff = 14
  binsize = 7, bins = 8 8 8
  1 neighbor lists, perpetual/occasional/extra = 1 0 0
  (1) pair lj/cut/coul/long, perpetual
      attributes: half, newton on
      pair build: half/bin/newton
      stencil: half/bin/3d
      bin: standard
Per MPI rank memory allocation (min/avg/max) = 14.99 | 15.36 | 15.39 Mbytes
   Step          Temp          E_pair         E_mol          TotEng         Press          Volume    
         0   296.02403     -53625.794      9590.3992     -33447.58       168.58544      123592.46    
      2500   296.94155     -53703.804      9595.0386     -33488.134     -167.65426      123428.99    
      5000   299.28977     -53720.778      9552.4005     -33463.758     -454.92304      123608.59    
      7500   299.955       -53744.144      9642.2447     -33373.487     -285.10429      123371.97    
     10000   297.76155     -53754.016      9560.4315     -33543.625     -70.127808      123616.25    
     12500   301.2637      -53811.688      9549.081      -33487.386     -204.18949      123196.37    
     15000   300.18152     -53699.303      9483.9809     -33478.808     -588.31729      123616.34    
     17500   299.48186     -53775.325      9502.7633     -33561.072     -578.94729      123432.49    
     20000   302.7915      -53679.791      9545.6859     -33304.24      -377.70172      123424.85    
     22500   297.05245     -53800.764      9537.543      -33638.623      378.6349       122927.7     
     25000   298.61048     -53699.076      9450.6422     -33568.11       3.2301318      123442.57    
     27500   298.46135     -53699.468      9571.84       -33452.638      396.07424      123473.69    
     30000   297.63529     -53707.479      9687.4207     -33374.614     -446.87161      123293.67    
     32500   300.55977     -53739.614      9431.3796     -33558.192      171.42272      123371.03    
     35000   302.27298     -53760.447      9534.5725     -33414.555      347.97891      123153.53    
     37500   300.37196     -53832.296      9555.8578     -33533.112      1114.4923      122761.18    
     40000   301.90996     -53738.777      9691.2384     -33249.204      509.93145      122834.17    
     42500   297.78104     -53727.053      9449.3839     -33627.012      166.56047      123383.4     
     45000   301.03055     -53656.043      9628.7022     -33260.459      490.71419      123734.95    
     47500   302.08739     -53704.979      9520.5387     -33379.759     -743.25969      123435.28    
     50000   302.15442     -53619.319      9455.7801     -33356.461      605.60038      123849.44    
     52500   299.52947     -53698.465      9548.9158     -33436.357     -90.655223      123511.6     
     55000   300.44014     -53627.938      9626.7268     -33255.447      738.30877      123519.85    
     57500   298.84399     -53716.069      9505.1192     -33522.275      409.65817      123474.01    
     60000   298.23439     -53698.795      9397.3369     -33634.586     -190.24944      123626.99    
     62500   301.02676     -53636.558      9459.6539     -33410.159     -172.60131      123544.24    
     65000   299.82145     -53650.478      9411.6775     -33515.165      74.842314      123464.45    
     67500   301.53604     -53708.196      9483.9879     -33439.247     -242.96978      123398.49    
     70000   298.60595     -53643.083      9499.3276     -33463.594     -541.22509      123402.04    
     72500   300.26263     -53688.508      9532.3406     -33416.752      46.843718      123725.16    
     75000   299.05136     -53733.074      9618.8664     -33418.116     -212.66284      123336.2     
     77500   299.47892     -53703.709      9521.9692     -33470.355     -540.36598      123676.63    
     80000   300.26187     -53677.198      9414.2885     -33523.522     -505.78324      123318.66    
     82500   301.17656     -53729.61       9354.8742     -33602.632      80.555614      123152.61    
     85000   300.00225     -53682.653      9594.1082     -33358.443     -577.29208      124001.85    
     87500   301.31342     -53674.873      9507.0581     -33390.816     -614.50324      123646.75    
     90000   298.17259     -53762.695      9624.5449     -33473.488     -710.49224      122946.49    
     92500   297.53593     -53667.226      9451.0745     -33574.261      355.11719      123253.06    
     95000   302.50895     -53671.575      9484.0009     -33367.816      106.26564      123238.51    
     97500   298.25228     -53689.897      9580.7217     -33441.663     -326.83581      123446.42    
    100000   299.77009     -53710.886      9581.9835     -33407.104     -199.50063      123656.7     
    102500   301.40967     -53730.808      9415.8861     -33534.481      31.570636      123143.87    
    105000   299.18268     -53772.334      9451.7598     -33619.786     -64.224974      123369.73    
    107500   301.86407     -53706.561      9595.3793     -33314.488      11.918742      123216.83    
    110000   303.40668     -53763.696      9699.3244     -33212.504     -587.01732      123455.22    
    112500   301.27472     -53640.237      9516.1432     -33348.479     -180.55971      124120.6     
    115000   298.453       -53639.861      9461.5065     -33503.663     -586.21846      123775.04    
    117500   296.30643     -53713.409      9472.0875     -33643.407     -433.41906      123363.63    
    120000   298.90119     -53689.765      9410.092      -33588.952     -368.55569      123543.04    
    122500   296.79342     -53670.473      9453.4439     -33601.696     -421.73704      123864.16    
    125000   303.4598      -53681.831      9396.4641     -33431.599     -229.48285      123390.38    
    127500   301.34334     -53706.044      9522.7163     -33405.259      51.078061      123425.24    
    130000   302.75361     -53700.495      9461.7709     -33410.214      68.240248      123130.11    
    132500   298.12407     -53706.439      9526.2417     -33517.271      67.548222      123208.73    
    135000   297.57467     -53802.9        9419.5538     -33740.071      116.1282       123202.79    
    137500   302.83384     -53709.215      9412.2077     -33465.628      718.76734      122946.85    
    140000   297.84327     -53682.128      9682.5692     -33346.676     -267.79319      123383.62    
    142500   297.55852     -53732.664      9555.7236     -33534.242     -302.41166      123316.93    
    145000   303.40075     -53711.348      9517.5725     -33342.12      -103.26229      123309.55    
    147500   301.3586      -53800.429      9603.6866     -33418.128      753.88192      123422.09    
    150000   301.50894     -53718.037      9548.7424     -33385.303      1284.8908      123152.42    
    152500   300.75607     -53709.691      9486.4801     -33466.147     -110.95201      123187.96    
    155000   296.24229     -53719.908      9389.1032     -33735.183     -182.263        123246.47    
    157500   294.19182     -53724.997      9515.083      -33687.631      49.788108      123311.1     
    160000   298.19319     -53657.251      9555.311      -33436.542     -613.84395      123111.16    
    162500   298.43664     -53790.083      9478.0874     -33637.89      -412.72039      123173.45    
    165000   300.41678     -53760.369      9571.8914     -33443.549     -299.40981      123225.13    
    167500   303.75602     -53607.412      9529.8769     -33213.172     -89.616349      124192.48    
    170000   304.21564     -53749.554      9580.5973     -33288.155      159.28502      123348.05    
    172500   302.11501     -53704.149      9511.2859     -33387.194      98.646032      123291.57    
    175000   302.63858     -53722.803      9550.6748     -33347.733      465.18035      122980.77    
    177500   294.3269      -53665.198      9424.25       -33713.834     -304.46288      123466.14    
    180000   299.66889     -53827.392      9534.7721     -33574.441      441.89121      122965.13    
    182500   296.74548     -53774.32       9441.5795     -33719.123      453.62261      122697.08    
    185000   303.13832     -53701.722      9527.6578     -33331.795      1111.9931      123786.48    
    187500   299.52708     -53758.465      9559.4356     -33485.922     -370.81723      123381.65    
    190000   295.93411     -53666.729      9556.8636     -33525.267     -49.65026       123541.6     
    192500   298.6205      -53690.596      9440.2563     -33569.658     -388.42717      123302.65    
    195000   297.03166     -53693.503      9432.7028     -33636.946     -152.40556      123521.55    
    197500   300.29707     -53636.862      9532.6273     -33363.587     -482.50496      123506.79    
    200000   298.71858     -53736.452      9567.5567     -33484.705      417.15462      123060.83    
    202500   301.46627     -53647.575      9484.4979     -33380.612     -341.98949      123713.83    
    205000   298.43245     -53615.536      9529.2109     -33412.37       307.53025      123644.8     
    207500   296.16382     -53740.44       9484.8384     -33662.787     -291.13902      123721.12    
    210000   300.73539     -53676.496      9403.7276     -33516.444      310.88766      123548.78    
    212500   302.23028     -53650.364      9491.7668     -33348.806      193.35803      123376.24    
    215000   299.48548     -53684.811      9467.6488     -33505.543     -860.40854      123535.7     
    217500   301.09184     -53690.186      9347.0413     -33574.071      138.53105      123028.47    
    220000   298.42893     -53621.29       9560.3821     -33387.078     -105.1506       123847.02    
    222500   302.66299     -53684.359      9582.7956     -33276.295     -313.89059      123582.76    
    225000   302.07943     -53649.777      9493.5518     -33351.829     -774.75608      123793.78    
    227500   297.80493     -53640.337      9521.3381     -33467.488      161.52938      123641.08    
    230000   301.89788     -53604.001      9513.4456     -33292.653     -983.89267      123864.97    
    232500   300.89195     -53640.029      9498.6934     -33379.412      274.45742      123566.73    
    235000   301.81129     -53639.506      9564.2549     -33280.446      475.36883      123137.91    
    237500   296.91557     -53552.33       9476.4598     -33456.168      498.58843      123851.04    
    240000   305.47346     -53631.142      9584.1695     -33121.182      668.0962       123419.64    
    242500   299.64014     -53581.469      9432.1261     -33432.192     -168.82421      123862.36    
    245000   299.67079     -53664.435      9514.3258     -33431.862     -784.0123       123669.85    
    247500   298.81928     -53624.38       9449.5417     -33487.047     -1183.3426      124155.78    
    250000   300.75897     -53618.263      9370.6165     -33490.478      332.26173      123177.9     
    252500   299.24559     -53590.159      9637.7173     -33249.402      765.18017      123717.15    
    255000   299.8253      -53660.602      9481.3603     -33455.468      609.58178      123906.92    
    257500   299.39997     -53550.247      9556.1565     -33285.529     -221.74028      124025       
    260000   296.43295     -53676.06       9477.029      -33596.59      -228.37084      123578.23    
    262500   293.79559     -53589.067      9575.3852     -33505.572     -248.77136      123895.59    
    265000   300.96937     -53633.691      9469.4118     -33399.586      135.0711       123718.16    
    267500   299.69286     -53661.751      9662.5163     -33280.198      601.59928      123633.08    
    270000   301.04434     -53647.101      9480.7643     -33398.962      524.98699      123979.28    
    272500   300.07183     -53591.242      9629.9216     -33228.729     -803.69604      123839.3     
    275000   298.96457     -53705.539      9455.4873     -33557.063     -187.98274      123310.81    
    277500   300.26173     -53679.756      9446.0945     -33494.279      147.92768      123576.07    
    280000   300.45516     -53689.215      9483.9358     -33458.977     -436.35309      123640.93    
    282500   300.28275     -53687.909      9500.3689     -33447.405      351.74513      123317.17    
    285000   298.398       -53712.017      9641.2078     -33398.086     -1052.1181      123721.24    
    287500   299.82904     -53732.539      9484.9862     -33523.646      359.2001       123253.02    
    290000   298.09724     -53615.501      9538.786      -33414.749      627.11719      123842.63    
    292500   298.94974     -53709.442      9572.2323     -33444.752     -181.08934      123227.71    
    295000   300.58125     -53634.483      9595.1532     -33288.518     -502.39165      123484.19    
    297500   297.66674     -53700.093      9366.5982     -33686.926      162.45156      123171.47    
    300000   304.69967     -53705.966      9490.6236     -33317.228      635.78985      123257.03    
    302500   301.65499     -53688.843      9500.3098     -33399.318     -400.51952      123414.48    
    305000   301.76004     -53656.893      9412.6706     -33451.249     -1281.0178      123631.33    
    307500   300.87957     -53748.895      9551.5912     -33435.822     -45.395151      123142.53    
    310000   299.38331     -53733.65       9489.4463     -33536.239     -741.41753      123314.85    
    312500   296.45667     -53771.965      9488.515      -33680.161      73.396775      123116.14    
    315000   296.76479     -53738.975      9516.8879     -33607.779     -1007.1567      123023.82    
    317500   300.23372     -53798.953      9583.2264     -33477.345      26.685172      123127.99    
    320000   302.80114     -53689.151      9448.0744     -33410.867      799.53386      123370.1     
    322500   298.88692     -53713.375      9437.1222     -33586.043     -7.1225112      123200.75    
    325000   298.27074     -53729.982      9520.0739     -33541.736      514.87052      123283.08    
    327500   298.94785     -53683.391      9552.9082     -33438.092      80.984847      123092.23    
    330000   300.21467     -53684.822      9461.2447     -33485.878      233.30966      123412.52    
    332500   297.11554     -53696.651      9566.8616     -33502.935      179.23391      123324.47    
    335000   300.84903     -53582.756      9461.862      -33360.505      55.837597      123044.21    
    337500   302.68431     -53658.269      9434.3039     -33397.934     -455.02551      123807.01    
    340000   300.81095     -53666.618      9521.1194     -33386.472     -452.99709      123951.38    
    342500   298.25643     -53721.129      9571.9335     -33481.535      272.28961      123493.65    
    345000   299.97087     -53700.031      9555.2202     -33415.831     -1034.769       123416.96    
    347500   297.28213     -53599.001      9445.9021     -33520.286      55.695775      123915.61    
    350000   299.25228     -53568.842      9508.4417     -33357.121      1294.4708      124142.9     
    352500   297.6012      -53584.105      9502.385      -33437.495      323.054        123924.81    
    355000   300.65619     -53649.872      9486.7708     -33409.61      -59.844179      123677.99    
    357500   300.94485     -53599.028      9518.2569     -33316.955      170.94225      123561.02    
    360000   298.61408     -53615.377      9556.5862     -33378.339     -306.92976      123575.77    
    362500   302.22259     -53682.645      9545.3405     -33327.788      252.57733      123659.97    
    365000   302.69129     -53669.398      9488.7612     -33354.356     -37.786925      123554.08    
    367500   303.62123     -53611.538      9490.6123     -33261.384     -903.83959      124156.81    
    370000   304.10316     -53671.082      9550.9017     -33243.401     -9.3672994      123304.18    
    372500   295.16311     -53662.995      9596.0852     -33509.888     -72.806492      123342       
    375000   302.36415     -53743.789      9577.5526     -33351.656     -189.03181      123405.17    
    377500   299.04773     -53807.311      9456.6953     -33654.653     -169.73574      123554.6     
    380000   303.62829     -53787.262      9476.2327     -33451.236      18.375608      123030.63    
    382500   296.29088     -53798.771      9473.9709     -33727.442      572.81879      123123.65    
    385000   300.48349     -53826.228      9484.5841     -33594.329     -787.69326      123095.65    
    387500   302.49019     -53718.219      9522.0882     -33377.043     -69.345642      123321.43    
    390000   301.78944     -53837.837      9415.4458     -33628.367      624.30311      122859.84    
    392500   301.12352     -53785.605      9461.4434     -33553.956      676.35469      123167.47    
    395000   303.5653      -53800.185      9551.4731     -33391.17       997.95313      123178.92    
    397500   301.50924     -53705.556      9592.4531     -33329.101     -1019.4657      123670.76    
    400000   302.73678     -53761.924      9610.5478     -33323.469      582.40585      122914.32    
    402500   296.0207      -53792.819      9463.525      -33741.599     -862.76056      123178.61    
    405000   298.51239     -53757.848      9460.4199     -33620.613      117.88099      123175.18    
    407500   298.91024     -53632.726      9605.4998     -33336.181     -145.84199      123769.88    
    410000   299.69951     -53720.066      9431.2015     -33569.59      -731.93693      123596.07    
    412500   300.35397     -53750.878      9611.4991     -33396.697     -530.75654      123566.95    
    415000   300.877       -53743.617      9526.4962     -33455.732      973.1838       123208.48    
    417500   296.42435     -53695.137      9561.5156     -33531.489     -154.49139      123432.28    
    420000   299.12152     -53796.183      9525.2148     -33572.366     -515.31966      123279.4     
    422500   304.22216     -53753.345      9509.9402     -33362.37      -268.97221      123048.85    
    425000   300.21599     -53748.748      9498.9494     -33512.051      336.01608      122920.17    
    427500   304.24945     -53792.929      9490.107      -33420.812      29.661415      123015.12    
    430000   299.04135     -53695.246      9569.2555     -33430.257      841.32031      123495.69    
    432500   301.53363     -53671.705      9430.614      -33456.216     -336.40876      123356.89    
    435000   299.72567     -53533.603      9539.1        -33274.293     -304.23932      124241.73    
    437500   294.88308     -53684.484      9505.2036     -33632.274      775.42989      123534.52    
    440000   298.71989     -53707.554      9460.2724     -33563.045     -435.06376      123631.29    
    442500   298.1714      -53617.953      9527.7716     -33425.562      56.017417      123753.15    
    445000   300.65218     -53777.96       9620.1565     -33404.455     -583.12894      123087.07    
    447500   301.68564     -53790.69       9587.4121     -33412.966      242.37598      123094.02    
    450000   297.71035     -53782.284      9507.5668     -33626.588      869.27363      123170.09    
    452500   299.3772      -53814.994      9387.542      -33719.706     -384.73898      123099.99    
    455000   303.22696     -53699.659      9493.4706     -33360.748      56.932814      123534.07    
    457500   296.5944      -53728.096      9520.3635     -33599.518      589.76512      123067.41    
    460000   307.22039     -53673.673      9440.8784     -33244.522      455.17528      123666.68    
    462500   301.58309     -53687.449      9432.5067     -33468.299     -808.51427      123666.87    
    465000   303.82654     -53680.107      9458.3839     -33354.838     -396.04134      123154.57    
    467500   301.89129     -53752.65       9498.6246     -33456.358      667.19031      123189.17    
    470000   299.74563     -53597.413      9613.7217     -33262.767      682.2334       123749.35    
    472500   298.97192     -53740.847      9434.8774     -33612.718      239.42424      123209.01    
    475000   297.94859     -53763.032      9644.9185     -33461.464     -413.71598      123530.95    
    477500   300.25322     -53709.048      9550.7854     -33419.184     -147.06683      123358.91    
    480000   296.29229     -53766.881      9596.074      -33573.398      139.21583      123487.3     
    482500   302.81656     -53730.749      9444.2773     -33455.711      267.15576      123323.64    
    485000   301.04296     -53641.786      9414.3203     -33460.141      214.16041      123609.28    
    487500   304.24519     -53736.843      9548.9021     -33306.083      637.77444      122788.53    
    490000   303.8902      -53696.649      9431.715      -33395.772     -122.7929       123618.41    
    492500   298.39799     -53701.016      9398.5615     -33629.732      430.49791      123394.98    
    495000   303.14319     -53725.869      9486.6412     -33396.785      1293.9704      123045.33    
    497500   297.06636     -53705.524      9401.6722     -33678.757     -937.79357      123283.41    
    500000   297.91707     -53687.189      9484.6082     -33547.058      205.30504      123427.36    
    502500   298.06292     -53671.607      9434.3306     -33576.537      231.33026      123586.43    
    505000   299.00646     -53662.79       9459.4713     -33508.832      566.64727      123419.94    
    507500   300.86514     -53723.14       9421.7182     -33540.456     -461.70657      123102.35    
    510000   303.45841     -53649.853      9542.9345     -33253.2       -167.33455      123421.28    
    512500   299.33111     -53770.585      9479.1426     -33585.344      11.125897      123284.28    
    515000   302.53792     -53668.804      9606.9757     -33241.033     -309.02103      123540.37    
    517500   296.09131     -53711.82       9436.2889     -33685.31      -200.32582      123332.06    
    520000   302.19913     -53753.523      9283.3362     -33661.509      820.65057      122977.41    
    522500   303.72664     -53791.927      9514.0318     -33414.583      317.36948      123113.37    
    525000   300.47819     -53736.451      9594.929      -33394.396      252.75674      123104.29    
    527500   296.8235      -53732.945      9583.6146     -33532.922     -420.70161      123116.39    
    530000   298.08711     -53775.494      9565.8504     -33548.039      561.3039       123149.3     
    532500   302.28491     -53730.215      9493.1939     -33425.276      340.11255      123018.17    
    535000   300.26705     -53711.121      9512.8083     -33458.739      14.904063      123342.77    
    537500   301.10948     -53755.109      9487.4823     -33497.922      92.322921      122967.38    
    540000   294.3009      -53760.903      9519.9374     -33714.782      79.152909      123590.94    
    542500   296.80279     -53784.436      9496.2046     -33672.563      501.61937      122784.01    
    545000   301.09812     -53696.768      9599.2978     -33328.172     -73.042909      124031.77    
    547500   297.24919     -53676.437      9492.4808     -33552.322     -49.135496      123489.68    
    550000   302.21482     -53604.294      9457.5337     -33337.522     -732.37798      123580.09    
    552500   299.47711     -53750.778      9590.5173     -33448.941     -248.11636      123570.97    
    555000   298.11068     -53689.008      9580.0976     -33446.463      313.32733      123430.96    
    557500   299.18062     -53738.525      9374.9823     -33662.827     -166.22912      123671.91    
    560000   296.66455     -53680.374      9530.9134     -33538.737      426.78768      123286.52    
    562500   307.68265     -53674.146      9436.8274     -33232.513     -402.8428       123664.38    
    565000   304.80627     -53680.964      9616.7899     -33162.247      112.14441      123863.62    
    567500   301.89586     -53682.354      9522.7448     -33361.779      11.164698      123605.87    
    570000   301.80582     -53680.593      9507.0436     -33378.94      -645.68309      123933.05    
    572500   301.88876     -53657.919      9475.4592     -33384.883      3.4472301      123785.6     
    575000   301.95117     -53647.66       9516.4411     -33331.41      -1323.1829      123773.71    
    577500   303.38284     -53652.937      9581.5331     -33220.389     -594.68625      124094.06    
    580000   300.32763     -53623.522      9496.4104     -33385.371     -718.43949      123908.69    
    582500   296.74004     -53697.927      9544.5414     -33539.962      1022.0588      123563.21    
    585000   301.1322      -53717.283      9548.9696     -33397.796      298.07404      122905.43    
    587500   300.19275     -53718.57       9632.249      -33349.405     -541.55036      123429.81    
    590000   298.03257     -53755.71       9504.1059     -33591.951      187.14613      123304.93    
    592500   302.04378     -53664.168      9446.6626     -33414.385     -547.16832      123672.4     
    595000   297.40216     -53697.574      9506.3947     -33554.073      98.580225      123367.6     
    597500   300.66321     -53737.38       9684.4361     -33299.202     -614.62171      123429.54    
    600000   302.97579     -53750.313      9522.6251     -33391.232     -370.19462      123357.09    
    602500   299.76026     -53737.994      9588.3288     -33428.218      361.358        123135.68    
    605000   300.42213     -53770.184      9460.0559     -33565.008      404.88396      123052.52    
    607500   299.19928     -53709.596      9605.8984     -33402.315      407.81554      123237.08    
    610000   300.88707     -53683.837      9545.4091     -33376.678     -654.1117       123772.51    
    612500   300.50595     -53726.28       9559.8156     -33418.346     -718.34746      123814.05    
    615000   302.07534     -53632.58       9579.9395     -33248.39      -582.35829      123826.03    
    617500   300.12017     -53670.277      9702.8656     -33233.092      70.813875      123480.59    
    620000   296.70022     -53710.871      9609.2845     -33489.587     -19.023646      123548.63    
    622500   299.16163     -53732.643      9591.2766     -33441.33       194.46857      123308.12    
    625000   298.09246     -53768.383      9436.28       -33670.308      1081.6187      123126.52    
    627500   298.47491     -53705.469      9456.2614     -33573.733      489.10995      123397.43    
    630000   298.04471     -53741.656      9475.8137     -33605.754      235.16432      122966.56    
    632500   304.08082     -53715.739      9552.12       -33287.639      899.04883      123475.92    
    635000   301.7393      -53750.728      9498.5901     -33459.907     -349.74709      123280.93    
    637500   303.6739      -53744.028      9604.8524     -33277.75       109.51319      123374.93    
    640000   299.64793     -53745.639      9393.9448     -33634.265      28.412624      123373.79    
    642500   300.73035     -53745.301      9573.0338     -33416.123     -810.78487      123466.51    
    645000   301.68732     -53822.095      9511.3393     -33520.384      351.92812      123094.89    
    647500   302.74285     -53823.224      9459.919      -33535.18      -549.78         123241.22    
    650000   297.06112     -53759.114      9497.7403     -33636.466     -493.26141      123298.81    
    652500   302.14707     -53753.706      9561.098      -33385.792      493.5789       122506.85    
    655000   303.29967     -53742.123      9654.4567     -33239.626     -475.85462      123271.92    
    657500   305.77079     -53779.801      9545.5042     -33297.872     -304.98208      123137.14    
    660000   306.08429     -53663.107      9514.886      -33200.584      190.23001      123773.44    
    662500   300.04273     -53679.188      9531.1067     -33416.531      472.21789      123241.51    
    665000   298.38717     -53764.806      9547.9724     -33544.497     -131.57778      123091.49    
    667500   298.25856     -53683.611      9422.3074     -33593.567     -969.95638      123891.58    
    670000   297.96905     -53764.624      9490.1001     -33617.142      596.09136      123296.31    
    672500   300.18664     -53725.436      9603.7403     -33384.998      763.40972      123223.89    
    675000   300.31673     -53741.871      9625.4652     -33375.056      669.5503       122924.53    
    677500   299.69218     -53689.186      9467.0599     -33503.114      505.42118      123601.75    
    680000   297.16814     -53655.59       9580.7622     -33446.092     -530.50044      123537.49    
    682500   301.5426      -53625.224      9514.5211     -33325.507      532.6956       123945.65    
    685000   299.86267     -53662.448      9565.4335     -33371.905      154.70944      123411.06    
    687500   301.18259     -53629.09       9527.0036     -33329.767     -441.79378      123479.8     
    690000   300.06094     -53754.657      9411.2529     -33611.202     -607.42638      123495.29    
    692500   295.68874     -53695.359      9630.5704     -33488.966      1009.1796      123458.75    
    695000   300.26338     -53738.739      9495.4547     -33503.842     -254.76405      123199.5     
    697500   300.35936     -53685.102      9520.2808     -33421.946     -272.83381      123666.72    
    700000   300.37912     -53717.825      9614.6772     -33359.566      114.86268      123239.74    
    702500   302.19752     -53755.673      9632.95       -33314.103     -243.51824      123141.68    
    705000   302.38173     -53703.592      9430.5319     -33457.851      238.13145      123510.01    
    707500   300.11276     -53684.6        9544.4334     -33406.112     -1118.3731      123718.79    
    710000   298.40542     -53601.035      9534.7995     -33393.247     -933.76221      123681.54    
    712500   300.74348     -53652.295      9530.6193     -33365.062     -424.65666      123470.22    
    715000   298.98205     -53729.849      9456.3964     -33579.839     -823.82136      123394.65    
    717500   301.74418     -53754.149      9596.8281     -33364.916      477.14096      123161.87    
    720000   298.7329      -53720.707      9535.2297     -33500.775     -279.30599      123024.2     
    722500   299.98934     -53605.111      9500.4532     -33375.017     -3.3277909      123658.22    
    725000   300.76855     -53723.383      9490.6492     -33475.224     -526.73566      123217.81    
    727500   299.28341     -53719.272      9532.9339     -33481.946      132.36902      123281.43    
    730000   302.30282     -53561.837      9380.9336     -33368.518      419.39535      123420.94    
    732500   297.06746     -53714.461      9506.6888     -33582.638      30.915899      123434.99    
    735000   298.57348     -53718.995      9488.0657     -33551.929     -392.51145      123491.83    
    737500   299.49479     -53706.915      9541.4081     -33453.554     -80.702704      123322.76    
    740000   299.36863     -53748.407      9418.8205     -33622.147     -333.24963      123562.68    
    742500   299.50129     -53656.618      9428.2422     -33516.192     -381.7019       123441.26    
    745000   298.98888     -53719.157      9513.8079     -33511.492     -16.708019      123674.97    
    747500   297.72388     -53809.042      9521.7749     -33638.655     -582.76998      123126.17    
    750000   297.41458     -53619.016      9521.0097     -33460.457     -342.78299      124380.15    
    752500   297.00988     -53782.01       9539.74       -33619.195      310.85608      123330.13    
    755000   298.37335     -53698.505      9600.4352     -33426.228      799.10809      123589.1     
    757500   302.78537     -53762.011      9677.8801     -33254.485     -318.72029      122980.93    
    760000   298.98079     -53767.65       9400.0202     -33674.062     -521.54157      123519.49    
    762500   296.90831     -53649.177      9437.4371     -33592.298     -694.76725      123861.43    
    765000   300.57965     -53732.951      9478.8497     -33503.347      258.58415      123255.11    
    767500   298.22313     -53723.716      9519.713      -33537.534     -278.95097      123604.75    
    770000   299.16776     -53666.19       9534.463      -33431.471      403.89593      123502.64    
    772500   302.89035     -53639.711      9507.0601     -33299.25       123.36695      123783.62    
    775000   299.61191     -53652.668      9474.3137     -33462.213     -421.04798      123432.03    
    777500   302.83855     -53673.67       9461.0534     -33381.069      857.72262      123224.81    
    780000   303.03178     -53736.267      9469.2809     -33428.528      291.52357      123485.61    
    782500   301.5999      -53790.504      9583.7796     -33419.479     -488.75231      122957.78    
    785000   296.87596     -53749.946      9605.6473     -33526.014     -417.33459      123570.19    
    787500   297.63438     -53714.654      9475.2883     -33593.954     -443.49818      123232.6     
    790000   299.45252     -53748.442      9659.8288     -33378.173      52.59607       123043.56    
    792500   298.02269     -53745.384      9592.2825     -33493.802      184.25852      123036.36    
    795000   299.37881     -53731.443      9532.0455     -33491.593     -760.5153       123049.38    
    797500   299.71712     -53784.651      9500.3847     -33564.363     -58.442881      122757.3     
    800000   303.14585     -53717.815      9588.2709     -33287.005      600.58017      123046.38    
    802500   295.2384      -53731.444      9571.0687     -33600.66       204.51903      123632.24    
    805000   300.81768     -53627.375      9684.8387     -33183.269     -374.6631       123845.37    
    807500   302.82466     -53718.491      9574.5159     -33312.924      24.831867      123170.46    
    810000   299.70104     -53700.318      9590.9485     -33390.041     -407.14183      123360.41    
    812500   301.86431     -53741.545      9440.6355     -33504.207      298.11966      122962.84    
    815000   301.03209     -53720.308      9521.0802     -33432.292     -932.73415      123381.68    
    817500   297.9636      -53673.161      9323.746      -33692.228      494.9399       123560.85    
    820000   301.78145     -53681.949      9445.6835     -33442.527     -76.306841      123149.74    
    822500   301.13503     -53691.615      9603.1144     -33317.883     -274.92371      123560.77    
    825000   299.98675     -53783.556      9391.379      -33662.629      667.77745      122732.05    
    827500   295.12017     -53679.232      9351.0191     -33772.727     -993.68593      123364.82    
    830000   298.75754     -53678.798      9523.0996     -33470.115     -655.28314      123563.24    
    832500   298.86344     -53676.466      9396.2782     -33590.817      338.56416      123342.2     
    835000   303.07002     -53708.281      9536.8593     -33331.595     -661.04825      123618.03    
    837500   299.34884     -53743.97       9515.4812     -33521.757      368.37039      122943.69    
    840000   296.99908     -53756.752      9475.2381     -33658.826     -1030.5393      123299.72    
    842500   296.13962     -53710.388      9478.3453     -33640.094      1477.9631      123186.96    
    845000   300.27519     -53689.308      9534.0644     -33415.379      9.1343758      123730.12    
    847500   302.33938     -53774.839      9604.5741     -33356.571      153.79183      122509.18    
    850000   299.5712      -53721.837      9506.2055     -33500.947     -317.68079      123479.51    
    852500   300.02546     -53720.952      9560.3237     -33429.695      601.29273      123552.33    
    855000   301.33261     -53717.724      9473.8174     -33466.221     -301.74382      123044.77    
    857500   302.16307     -53710.493      9547.4408     -33355.664     -171.97061      123255.64    
    860000   295.50083     -53689.026      9408.902      -33711.023      224.20729      123459.53    
    862500   297.87039     -53659.183      9585.4533     -33419.878     -609.03956      123499.1     
    865000   301.91504     -53684.196      9568.9565     -33316.723      627.31744      123521.18    
    867500   298.35454     -53746          9553.5775     -33521.253      188.27023      123563       
    870000   304.65344     -53728.576      9464.6909     -33367.425      420.34226      123127.55    
    872500   295.02175     -53750.545      9557.8185     -33640.761      898.47787      122730.01    
    875000   296.76747     -53665.222      9484.6019     -33566.215      598.4832       123507.75    
    877500   295.0082      -53669.486      9575.2144     -33542.79      -690.65768      123486.58    
    880000   299.94647     -53698.06       9588.3749     -33381.578     -137.10261      123254.71    
    882500   297.26934     -53701.725      9497.9646     -33571.406     -694.83428      123257.05    
    885000   304.31297     -53729.006      9541.3024     -33303.421     -1077.7569      123029.91    
    887500   302.9586      -53747.894      9597.6071     -33314.445      244.77636      123125.06    
    890000   301.23732     -53827.365      9546.4115     -33506.676     -724.72943      123381.08    
    892500   298.70897     -53680.535      9562.9016     -33433.787      406.50293      123239.61    
    895000   299.21777     -53686.576      9623.4579     -33361.074      367.37678      123052.1     
    897500   301.6438      -53625.146      9568.9987     -33267.333      1095.3681      123761.57    
    900000   297.38416     -53702.749      9512.5346     -33553.752     -336.43288      123687.99    
    902500   299.35321     -53646.051      9502.9473     -33436.215     -105.81678      123662.89    
    905000   299.20981     -53679.584      9499.1177     -33478.707      129.62889      123440.44    
    907500   299.39133     -53674.412      9534.7303     -33431.43      -1198.9791      123591.22    
    910000   302.27191     -53729.607      9428.4281     -33489.898     -542.56222      123049.62    
    912500   299.06868     -53681.534      9488.3542     -33496.468      279.40033      122941.52    
    915000   302.19372     -53601.845      9609.1457     -33184.215     -244.06919      123882.16    
    917500   300.02099     -53608.65       9505.2134     -33372.664     -314.45833      123803.21    
    920000   302.00193     -53605.109      9478.2108     -33325.274     -1265.6933      123556.04    
    922500   297.35588     -53637.434      9467.9817     -33534.002      204.61321      123788.21    
    925000   300.67906     -53685.194      9552.0566     -33378.828     -543.41946      123374.55    
    927500   304.38749     -53597.072      9506.5072     -33203.616      841.25207      123736.45    
    930000   300.49601     -53681.129      9420.152      -33513.215      204.52651      123408.63    
    932500   298.54641     -53646.607      9429.4057     -33539.17      -150.95664      123403.7     
    935000   302.36086     -53646.669      9685.3538     -33146.853     -911.03381      123687.48    
    937500   297.27536     -53647.638      9546.0528     -33469.014     -994.12782      123638.17    
    940000   299.94663     -53673.114      9531.1013     -33413.9        779.88817      122991.16    
    942500   299.29895     -53648.397      9486.7206     -33456.728     -715.61918      123690.64    
    945000   300.23045     -53722.751      9253.6341     -33730.853      166.46086      123717.63    
    947500   298.44701     -53772.637      9594.1348     -33504.026      801.10451      123158.99    
    950000   299.97857     -53651.528      9548.4086     -33373.863     -277.94409      123433.73    
    952500   301.79146     -53652.391      9421.3153     -33436.979     -657.39009      124089.99    
    955000   296.62975     -53650.262      9541.4779     -33499.305      44.154445      123827.65    
    957500   300.47555     -53735.225      9478.9546     -33509.24       266.36477      123652.2     
    960000   300.80064     -53670.765      9481.2559     -33430.851      30.292907      123564.17    
    962500   306.88867     -53738.272      9477.0546     -33284.81      -3.9053468      123205.05    
    965000   298.56462     -53711.465      9533.0335     -33499.748      122.72         123521.41    
    967500   303.19268     -53669.336      9464.3269     -33360.796      259.42653      123458.86    
    970000   300.41897     -53690.611      9403.9364     -33541.667     -218.40598      123407.62    
    972500   299.84485     -53694.74       9626.4482     -33343.819      318.60975      123433.15    
    975000   303.64206     -53667.546      9402.6346     -33404.625     -173.04245      123825.94    
    977500   294.95893     -53704.98       9576.1583     -33579.103     -310.81222      123656.21    
    980000   299.0435      -53744.096      9527.8408     -33520.444      850.24792      123303.26    
    982500   300.37449     -53727.597      9485.8125     -33498.368     -197.74244      123481.12    
    985000   299.50628     -53820.722      9465.3541     -33643.004     -303.98462      122972.14    
    987500   302.9187      -53751.273      9551.0529     -33365.806      665.59251      122656.67    
    990000   303.09913     -53700.733      9566.6782     -33293.187      286.82239      123484.82    
    992500   301.91883     -53684.902      9368.3268     -33517.923      208.52704      123245.76    
    995000   297.40109     -53738.848      9501.189      -33600.592     -231.84365      123275.27    
    997500   297.93391     -53723.732      9509.4823     -33558.125     -500.34449      123654.45    
   1000000   301.81138     -53787.308      9399.4381     -33593.061     -631.25712      123562.34    
   1002500   296.8799      -53796.862      9464.4446     -33713.991     -283.97147      123095.85    
   1005000   301.98435     -53824.716      9632.3969     -33391.324     -416.42426      122991.92    
   1007500   300.40542     -53762.486      9597.1951     -33420.768     -8.6240939      123409.76    
   1010000   298.56488     -53709.857      9545.4811     -33485.684      112.08316      123642.22    
   1012500   304.60424     -53853.2        9497.3448     -33461.155      579.05453      123217.51    
   1015000   302.45873     -53871.165      9567.5591     -33485.643      682.16095      122737.59    
   1017500   300.82108     -53765.608      9443.2818     -33562.937      89.827863      123386.04    
   1020000   300.03883     -53812.27       9699.1218     -33381.737      989.8552       123077.8     
   1022500   297.90681     -53737.467      9632.1125     -33450.199      4.9991917      122768.71    
   1025000   300.78375     -53717.873      9557.8363     -33401.983     -1777.479       123656.27    
   1027500   298.94986     -53752.362      9504.1215     -33555.778     -0.66924113     123247       
   1030000   301.80966     -53786.201      9676.017      -33315.437      351.37285      123077.29    
   1032500   299.67232     -53758.834      9550.2214     -33490.311     -545.5967       123493.18    
   1035000   301.75575     -53798.757      9633.7485     -33372.19      -213.23999      122982.18    
   1037500   300.23208     -53759.084      9577.7912     -33442.97      -225.99771      123253.2     
   1040000   298.34274     -53715.29       9494.9182     -33549.624      587.22295      123226.43    
   1042500   296.91587     -53772.506      9595.7724     -33557.021     -713.71966      123242.28    
   1045000   301.77586     -53788.919      9502.2983     -33493.082      93.870461      122983.69    
   1047500   305.9523      -53855.349      9507.7259     -33404.707      5.2118879      122889.24    
   1050000   298.72977     -53753.235      9540.0952     -33528.55      -9.4258022      123097.34    
   1052500   299.82272     -53673.994      9463.4398     -33486.873      416.72731      123375.58    
   1055000   294.62682     -53688.077      9663.7        -33486.536      97.884841      123718.91    
   1057500   302.48288     -53742.485      9530.7486     -33392.91       144.89728      123222.95    
   1060000   298.95492     -53820.168      9471.9688     -33655.557      315.768        123056.01    
   1062500   304.90428     -53768.284      9584.1629     -33278.689      630.8888       122664.87    
   1065000   296.34986     -53851.35       9524.1951     -33727.686      124.85335      123061.31    
   1067500   300.74463     -53766.571      9548.5326     -33461.383     -557.94101      123093.57    
   1070000   299.98615     -53705.266      9546.8876     -33428.852     -356.13273      123298.11    
   1072500   299.35624     -53778.839      9551.2776     -33520.565     -398.84369      123220.71    
   1075000   296.84643     -53742.004      9498.5761     -33626.198     -1245.148       123660.27    
   1077500   301.79588     -53765.904      9387.597      -33584.052     -1004.1319      123482.38    
   1080000   297.60902     -53674.959      9448.7977     -33581.657     -83.308135      123431.54    
   1082500   300.16086     -53747.595      9578.3912     -33433.429      274.89569      122964.87    
   1085000   300.93364     -53793.671      9492.3127     -33537.943      620.2669       122823.42    
   1087500   298.09094     -53669.865      9497.8287     -33510.295     -373.30502      123515.79    
   1090000   300.81804     -53727.236      9584.0968     -33383.858      416.05539      123210.96    
   1092500   299.83551     -53715.03       9459.4589     -33531.432     -1023.2821      123433.52    
   1095000   299.9783      -53623.46       9450.1696     -33444.045      511.07205      123836.26    
   1097500   299.74192     -53804.657      9417.3661     -33666.5       -182.84852      123361.91    
   1100000   299.7341      -53649.903      9388.7148     -33540.676     -381.6296       123777.75    
   1102500   299.1528      -53658.903      9556.4218     -33402.761     -63.617261      123351.96    
   1105000   302.63888     -53592.985      9461.8952     -33306.684     -803.63713      123730.17    
   1107500   304.54508     -53659.53       9452.4584     -33314.487      144.31674      123735.36    
   1110000   300.28774     -53663.506      9546.555      -33376.638      641.01012      123609.41    
   1112500   298.39754     -53666.483      9489.7968     -33503.979     -784.34042      123766.25    
   1115000   302.14244     -53697.436      9542.3893     -33348.397     -60.372884      123456.99    
   1117500   299.67476     -53617.862      9504.2737     -33395.199      118.00582      123423.66    
   1120000   299.75431     -53654.203      9393.6979     -33539.27       252.17629      123930.23    
   1122500   301.62017     -53564.33       9456.8829     -33319.478     -524.51315      124037.07    
   1125000   304.0529      -53674.687      9540.4975     -33259.208      1128.4737      123343.68    
   1127500   300.26847     -53605.173      9481.4613     -33384.088      604.92237      123662.44    
   1130000   301.5824      -53631.591      9414.3915     -33430.58       839.09336      123808.42    
   1132500   300.69672     -53690.472      9468.3242     -33467.207      6.8810202      123141.34    
   1135000   302.91985     -53718.848      9466.2675     -33418.125     -860.76731      123501.17    
   1137500   298.12135     -53659.841      9385.5698     -33611.442      372.11341      123384.4     
   1140000   298.67793     -53656.977      9441.1192     -33533.122     -781.32184      123438.95    
   1142500   293.47502     -53686.774      9583.126      -33607.003      420.26969      123031.09    
   1145000   302.41836     -53677.679      9489.7192     -33371.441     -418.91289      123634.73    
   1147500   302.27137     -53832.684      9434.3543     -33587.068      55.441807      122937.8     
   1150000   298.97774     -53705.125      9478.8585     -33532.808      438.09246      123350.79    
   1152500   299.77797     -53719.416      9615.9958     -33381.34      -479.02571      123419.41    
   1155000   304.18223     -53731.407      9412.1175     -33439.683      1078.1503      123332.68    
   1157500   298.8515      -53711.219      9545.864      -33476.411      627.11943      123160.07    
   1160000   300.5305      -53686.396      9487.3075     -33450.092      237.00301      123483.73    
   1162500   300.33176     -53651.687      9484.9526     -33424.846      935.80036      123294.54    
   1165000   302.34774     -53735.121      9568.1557     -33352.972      858.24839      122803.05    
   1167500   300.40555     -53761.649      9495.5406     -33521.581      110.97914      123299.5     
   1170000   302.77183     -53651.913      9632.9638     -33189.788      881.44433      123209.63    
   1172500   298.62281     -53633.319      9460.6345     -33491.92       265.12443      123335.07    
   1175000   293.42312     -53622.875      9353.0154     -33775.071     -333.93638      123465.97    
   1177500   305.72573     -53682.393      9389.4012     -33358.179     -101.30475      123411       
   1180000   302.7412      -53631.899      9485.7187     -33318.115      486.80661      123524.83    
   1182500   302.42173     -53680.053      9480.9748     -33382.439      300.32355      123575.16    
   1185000   296.00714     -53591.675      9461.3646     -33543.1        441.62441      123892.79    
   1187500   304.39388     -53780.765      9438.5262     -33455.063     -486.19225      123361.15    
   1190000   300.75849     -53696.476      9454.0125     -33485.313      120.42675      123393.91    
   1192500   303.56        -53735.084      9415.9697     -33461.763     -215.99459      123155.29    
   1195000   298.40683     -53678.823      9349.6891     -33656.094      15.66454       123269.65    
   1197500   298.7326      -53677.182      9515.1236     -33477.368      201.28383      123824.36    
   1200000   302.09173     -53684.821      9580.1252     -33299.859      791.18045      123222.27    
   1202500   301.07885     -53675.087      9517.0151     -33389.463      337.55442      123346.2     
   1205000   302.86713     -53589.093      9454.2307     -33302.292      183.57048      123823.8     
   1207500   297.61216     -53616.241      9555.3454     -33416.279     -935.07456      123791.29    
   1210000   293.04656     -53679.779      9428.6579     -33769.801      972.15825      123129.25    
   1212500   299.17805     -53626.345      9471.1153     -33454.607      603.4566       123384.29    
   1215000   299.65427     -53677.317      9424.2104     -33535.45      -88.390578      123725.96    
   1217500   302.31779     -53641.31       9512.3837     -33316.004     -1188.6473      123862.66    
   1220000   302.26759     -53724.144      9517.8902     -33395.127     -178.98932      123789.78    
   1222500   297.04049     -53670.615      9617.5285     -33428.917      1118.111       123417.88    
   1225000   302.10557     -53803.123      9514.0263     -33483.766     -139.22792      123027.03    
   1227500   300.58398     -53678.513      9471.9177     -33455.686     -13.306169      123552       
   1230000   301.69548     -53653.627      9527.4252     -33335.538     -143.51088      123552.63    
   1232500   301.10665     -53668.383      9477.2911     -33421.488     -12.682146      123663.1     
   1235000   297.72626     -53669.315      9513.8564     -33506.761     -284.08608      123715.35    
   1237500   303.52171     -53624.437      9442.8271     -33325.628     -304.34114      123585.08    
   1240000   299.31074     -53642.612      9581.2647     -33355.978     -691.93281      124031.33    
   1242500   300.83516     -53647.599      9505.7218     -33381.984      288.35887      123441.18    
   1245000   299.87726     -53745.803      9593.9541     -33426.218     -205.31613      123091.9     
   1247500   294.96467     -53628.085      9487.6327     -33590.528     -330.7519       123941.48    
   1250000   298.86268     -53712.833      9504.2544     -33519.235     -164.67199      123685.42    
   1252500   298.40634     -53744.217      9521.3805     -33549.814      137.31452      123405.78    
   1255000   299.58781     -53748.733      9386.4995     -33646.954     -241.79095      123204       
   1257500   300.54872     -53759.572      9550.999      -33458.925      1220.0572      123093.39    
   1260000   301.09754     -53695.975      9425.3911     -33501.306      547.54114      123134.69    
   1262500   298.5669      -53829.372      9551.6938     -33598.914      456.0664       122710.68    
   1265000   300.61032     -53786.05       9558.2138     -33475.985      494.65868      123348.87    
   1267500   304.74252     -53697.475      9558.5025     -33239.327     -169.26679      123412.05    
   1270000   300.95292     -53628.521      9555.2132     -33309.203     -207.96704      123622.55    
   1272500   299.54527     -53693.084      9536.7582     -33442.568      107.68934      123738.88    
   1275000   303.01        -53687.129      9554.0763     -33295.373      285.51786      123668.37    
   1277500   303.28023     -53662.562      9609.065      -33206.152     -172.53496      123959.15    
   1280000   297.98868     -53769.302      9517.8767     -33593.342     -1115.1649      123248.93    
   1282500   300.32071     -53743.901      9520.0562     -33482.353     -4.4616593      123410.23    
   1285000   299.77555     -53623.688      9399.3842     -33502.309     -184.12862      123730.84    
   1287500   299.06256     -53676.837      9550.5852     -33429.759      503.61383      123572.71    
   1290000   302.80408     -53608.822      9381.5724     -33396.935      72.058819      123663.75    
   1292500   300.38522     -53713.536      9522.6734     -33447.063     -443.84501      123396.88    
   1295000   300.1174      -53717.982      9448.9623     -33534.799      736.30749      123473.97    
   1297500   302.98711     -53690.775      9491.4996     -33362.415      1058.9337      123320.62    
   1300000   299.65502     -53569.581      9572.1385     -33279.76      -310.66903      123994.55    
   1302500   296.48984     -53611.766      9481.14       -33526.151     -991.2009       123604.34    
   1305000   301.6475      -53689.314      9444.0213     -33456.345     -353.06616      123549.81    
   1307500   301.52844     -53667.3        9436.3166     -33446.294      202.41614      123713.32    
   1310000   297.72039     -53670.073      9606.574      -33415.011      677.16801      123713.11    
   1312500   300.40777     -53680.125      9519.5697     -33415.948      556.95407      123731.85    
   1315000   298.76149     -53744.787      9437.6039     -33621.458     -17.255889      123841.28    
   1317500   297.59759     -53656.011      9416.4202     -33595.496      604.78263      123577.62    
   1320000   300.48529     -53669.544      9526.704      -33395.461      172.7645       123729.36    
   1322500   296.55229     -53672.953      9446.5997     -33619.645      453.7034       123001.72    
   1325000   300.85606     -53680.133      9525.2988     -33394.193      391.04877      123565.3     
   1327500   297.9966      -53696.684      9516.972      -33521.345      491.41359      123673.41    
   1330000   298.52591     -53684.885      9456.8522     -33550.734      311.00861      123608.35    
   1332500   301.38674     -53615.35       9737.4051     -33098.323     -1223.5455      123700.66    
   1335000   300.90069     -53709.307      9548.8301     -33398.24       448.32407      123393.37    
   1337500   301.56727     -53596.976      9452.0895     -33358.808      282.72821      123440.11    
   1340000   299.31601     -53676.059      9548.7328     -33421.769     -756.29929      123826.46    
   1342500   302.63842     -53664.815      9517.0948     -33323.331      996.30011      124004.27    
   1345000   298.60472     -53631.862      9478.6289     -33473.116     -1253.6873      123709.89    
   1347500   300.67599     -53742.632      9510.526      -33477.906      518.24791      123551.45    
   1350000   296.14705     -53665.549      9461.8591     -33611.476      810.77287      123617.2     
   1352500   298.90431     -53602.934      9530.1993     -33381.902     -672.9439       124194.32    
   1355000   303.09307     -53647.238      9565.3812     -33241.206     -309.85772      123528.91    
   1357500   299.69328     -53619.61       9444.181      -33456.378     -1225.8311      124033.3     
   1360000   299.41685     -53659.752      9466.138      -33484.45      -38.429321      123572.53    
   1362500   302.55496     -53644.611      9493.6022     -33329.605     -332.10748      124467.54    
   1365000   300.28252     -53688.131      9600.8609     -33347.144     -423.48518      123836.38    
   1367500   298.44562     -53666.233      9370.4554     -33621.351     -338.77103      123858.73    
   1370000   302.84996     -53688.31       9432.6972     -33423.657      341.50073      123575.6     
   1372500   301.70338     -53616.887      9383.5023     -33442.439     -614.41389      124014.81    
   1375000   297.59375     -53613.623      9376.5634     -33593.101      301.51787      123877.39    
   1377500   302.74017     -53619.804      9521.5717     -33270.203     -243.43582      123409.66    
   1380000   304.78067     -53635.979      9523.3193     -33211.649     -121.13867      123939.53    
   1382500   299.9192      -53714.038      9517.9419     -33468.965      1129.5836      123242.3     
   1385000   298.8882      -53642.492      9445.7973     -33506.439     -188.47127      123835.65    
   1387500   297.54024     -53749.493      9412.6881     -33694.761      406.84135      123499.1     
   1390000   303.11725     -53694.033      9494.5948     -33357.923     -119.28181      123504.85    
   1392500   302.19857     -53623.403      9629.4463     -33185.299      192.90315      123396.71    
   1395000   301.86608     -53663.96       9505.966      -33361.228      232.46541      123649.68    
   1397500   303.82224     -53744.653      9534.3123     -33343.609     -188.9514       123192.1     
   1400000   303.62168     -53658.779      9637.6956     -33161.526     -587.41284      123719.48    
   1402500   299.53413     -53668.196      9570.7827     -33384.054     -706.11913      123049.97    
   1405000   300.35221     -53671.685      9540.6956     -33388.37       117.69328      123663.54    
   1407500   297.87095     -53648.335      9483.2235     -33511.238     -546.74678      123749.41    
   1410000   301.88597     -53662.314      9484.7464     -33380.091      1035.8809      123869.6     
   1412500   296.56081     -53642.598      9476.0956     -33559.489     -518.06756      123739.94    
   1415000   301.0079      -53562.166      9540.6134     -33255.481     -26.158446      124015.64    
   1417500   298.3534      -53604.166      9451.153      -33481.885     -163.18192      123818.63    
   1420000   301.31225     -53645.508      9521.1284     -33347.423      673.6004       123570.72    
   1422500   302.67718     -53632.881      9515.1875     -33291.918     -176.58047      123671.92    
   1425000   299.41093     -53623.979      9424.4499     -33490.576     -816.60606      123851.47    
   1427500   296.54928     -53647.054      9417.2268     -33623.227     -775.47416      123881.31    
   1430000   299.89624     -53673.789      9554.2096     -33393.269      77.557142      123755.01    
   1432500   299.11055     -53697.271      9570.9797     -33428.082      656.17482      123205.43    
   1435000   297.26518     -53639.607      9429.2484     -33578.152     -242.11407      123526.7     
   1437500   299.66993     -53737.749      9461.2876     -33558.245      945.69824      123636.06    
   1440000   298.90336     -53659.084      9346.656      -33621.63       733.79463      123961.43    
   1442500   300.46529     -53551.708      9629.4456     -33175.599     -243.10981      124110.54    
   1445000   303.74763     -53715.022      9476.8326     -33374.127      61.732689      123532.69    
   1447500   304.44045     -53697.806      9475.7666     -33333.197      420.61988      123441.24    
   1450000   300.95085     -53664.348      9555.2538     -33345.063     -813.64988      123392.9     
   1452500   303.83247     -53728.419      9398.9649     -33462.358     -459.85545      123498.18    
   1455000   299.96674     -53670.591      9532.3473     -33409.411     -1107.0784      123779.39    
   1457500   302.37728     -53618.501      9456.0579     -33347.393     -413.40862      124031.21    
   1460000   300.18293     -53571.981      9491.6856     -33343.731      90.50122       124355.83    
   1462500   297.05609     -53627.495      9487.6634     -33515.103      151.53523      123462.35    
   1465000   299.18997     -53648.327      9536.4494     -33410.828     -82.124823      124202.75    
   1467500   297.41897     -53705.214      9400.3034     -33667.204     -1236.8472      123441.57    
   1470000   300.48511     -53602.074      9543.5149     -33311.186     -825.91431      123993.98    
   1472500   300.67778     -53640.088      9477.5984     -33408.226     -382.95523      123793.95    
   1475000   297.07571     -53655.319      9609.7087     -33420.181     -654.77091      123886.67    
   1477500   298.62613     -53594.781      9505.3789     -33408.519      42.025556      124004.79    
   1480000   300.2223      -53644.527      9535.0316     -33371.523      571.81711      123936.8     
   1482500   297.51081     -53686.256      9570.1765     -33475.087     -239.18348      123597.5     
   1485000   302.92049     -53631.188      9415.2022     -33381.507      413.86685      124075.78    
   1487500   302.83426     -53645.034      9531.6422     -33281.997      143.05617      123352.6     
   1490000   297.42866     -53539.887      9635.7503     -33266.083      21.729224      124051.23    
   1492500   300.46957     -53614.629      9385.5274     -33482.285     -582.59794      123546.05    
   1495000   297.17679     -53561.814      9468.7842     -33463.985     -1727.8559      124307.75    
   1497500   300.19978     -53689.705      9539.055      -33413.483     -843.85608      123531.65    
   1500000   303.09787     -53739.87       9485.2989     -33413.748     -38.936264      123537.44    
   1502500   301.82145     -53701.034      9501.2228     -33404.642      648.13729      123343.3     
   1505000   300.19422     -53746.794      9583.8842     -33425.942     -470.92443      123452.75    
   1507500   301.84453     -53689.706      9450.5227     -33443.188      499.16641      123832.66    
   1510000   296.99133     -53630.88       9421.4727     -33586.996     -69.477872      123876.43    
   1512500   298.50375     -53631.586      9507.6775     -33447.403      634.80797      123855.44    
   1515000   299.44461     -53624.241      9379.1442     -33534.94       280.3263       123220.88    
   1517500   298.23251     -53642.61       9397.9089     -33577.896      386.10281      123486.81    
   1520000   301.07679     -53656.61       9455.3553     -33432.72       37.477286      123639.95    
   1522500   303.09071     -53555.137      9496.9025     -33217.667     -741.39139      123653.29    
   1525000   298.67825     -53678.282      9550.9535     -33444.581     -68.638479      123266.27    
   1527500   300.75382     -53658.621      9495.9603     -33405.677     -207.43952      123650.43    
   1530000   301.98154     -53739.35       9527.9965     -33410.458      464.35902      123200.85    
   1532500   299.70093     -53642.173      9483.8114     -33439.037     -562.00956      123629.67    
   1535000   305.83413     -53657.797      9485.4514     -33233.656      816.59504      123460.56    
   1537500   303.08142     -53714.863      9624.7755     -33249.853      340.20485      123065.71    
   1540000   298.63041     -53729.196      9669.9212     -33378.238     -175.57041      123530.26    
   1542500   299.33297     -53693.144      9526.9585     -33460.021      254.59347      123297.87    
   1545000   300.2804      -53635.388      9378.0083     -33517.329      277.24256      123746.03    
   1547500   301.14378     -53589.691      9582.4348     -33236.325      724.52612      123669.17    
   1550000   301.54162     -53711.801      9616.1293     -33310.511      288.45802      123209.51    
   1552500   302.17337     -53626.244      9548.0606     -33270.427     -474.31258      123440.76    
   1555000   301.60387     -53695.034      9433.2254     -33474.421      385.97477      123625.33    
   1557500   302.53826     -53697.082      9458.2502     -33418.025      27.409573      123789.29    
   1560000   298.38781     -53742.104      9541.2464     -33528.499     -562.99416      123110.36    
   1562500   298.00684     -53716.478      9580.4319     -33477.313     -535.6465       123364.47    
   1565000   299.25725     -53823.76       9519.5976     -33600.706      1512.0166      122627.22    
   1567500   301.77412     -53767.569      9375.7709     -33598.322      217.49168      123221.61    
   1570000   298.74344     -53759.996      9551.651      -33523.266      505.42411      123299.33    
   1572500   301.65369     -53762.259      9456.3643     -33516.726      598.31567      123214.01    
   1575000   302.80848     -53683.541      9551.4588     -33301.61      -161.63689      123654.51    
   1577500   300.24519     -53726.752      9537.2671     -33450.693     -84.008172      123585.1     
   1580000   298.07131     -53748.352      9603.754      -33483.559     -998.08714      123336.99    
   1582500   299.13533     -53708.803      9410.1651     -33599.542      161.74664      123254.15    
   1585000   299.25355     -53712.228      9536.0342     -33472.87       33.092935      123283.38    
   1587500   302.15686     -53789.588      9621.4559     -33360.966      754.23335      122869.3     
   1590000   298.31864     -53766.431      9620.7554     -33475.79       1652.9941      123103.69    
   1592500   298.77671     -53822.899      9413.0026     -33723.628     -610.66957      122816.44    
   1595000   301.58005     -53758.027      9651.6141     -33319.878     -82.301964      123014.61    
   1597500   300.40835     -53742.421      9599.9224     -33397.871     -1231.4359      123337.7     
   1600000   298.42627     -53797.877      9491.648      -33632.494     -795.24068      123080.69    
   1602500   300.10487     -53748.554      9565.7448     -33449.036     -166.98669      123472.33    
   1605000   296.17026     -53672.861      9561.2247     -33518.592     -474.28249      123651.24    
   1607500   298.74978     -53713.378      9662.6048     -33365.468     -270.31712      123349.08    
   1610000   297.79848     -53763.355      9550.7657     -33561.309      468.69042      122893.99    
   1612500   301.82163     -53785.734      9467.6228     -33522.935      455.32502      123231.24    
   1615000   302.48005     -53853.158      9561.1635     -33473.27       238.42631      122936.21    
   1617500   298.68663     -53741.193      9436.9522     -33621.193     -395.25755      123187.21    
   1620000   301.30662     -53816.981      9435.3923     -33604.833      397.86125      123194.4     
   1622500   300.43428     -53744.253      9591.9114     -33406.787      878.32202      122874.24    
   1625000   297.09818     -53785.594      9456.8775     -33702.483     -106.34619      123162.78    
   1627500   299.97856     -53815.138      9487.7492     -33598.134     -558.40065      122990.93    
   1630000   299.986       -53795.969      9616.523      -33449.925     -606.62844      123361.35    
   1632500   297.46839     -53710.106      9586.7372     -33483.894      356.59316      123232.89    
   1635000   296.54668     -53847.61       9673.5273     -33567.574      497.08803      122922.98    
   1637500   298.03614     -53792.062      9483.0744     -33649.207      366.40189      123238.98    
   1640000   299.63501     -53712.524      9493.5576     -33501.999     -1105.072       123405.33    
   1642500   296.29341     -53623.538      9592.1938     -33433.895     -626.06566      124279.61    
   1645000   299.64955     -53743.858      9445.4219     -33580.948      609.99669      123106.68    
   1647500   296.97309     -53676.182      9609.9428     -33444.48       495.36764      123830.17    
   1650000   297.79812     -53662.947      9586.4305     -33425.248     -318.45407      123774.05    
   1652500   298.25224     -53704.468      9470.3799     -33566.578     -396.20255      123849.48    
   1655000   301.59584     -53813.471      9452.2252     -33574.146     -97.31558       123076.02    
   1657500   301.81911     -53642.757      9591.2838     -33256.387     -1141.9692      123954.55    
   1660000   299.36753     -53695.949      9605.4981     -33383.05       378.27006      123449.86    
   1662500   302.26297     -53667.962      9644.7103     -33212.291     -220.89157      123411.82    
   1665000   303.51293     -53745.211      9507.0222     -33382.521      243.72694      123388.87    
   1667500   299.30424     -53772.09       9522.95       -33544.003      882.40367      122839.69    
   1670000   299.22778     -53724.455      9647.8391     -33374.214     -130.66825      123397.56    
   1672500   299.12462     -53747.849      9596.601      -33452.536     -12.827877      122870.73    
   1675000   298.61453     -53811.686      9426.833      -33704.385     -171.19875      123230.53    
   1677500   301.73508     -53778.213      9453.8391     -33532.294     -620.96199      123411.62    
   1680000   298.39948     -53747.104      9547.3964     -33526.931     -680.96011      123576.79    
   1682500   300.33515     -53780.557      9606.6168     -33431.931      278.74145      123403.73    
   1685000   300.00533     -53652.934      9525.2971     -33397.424      629.20974      123600.48    
   1687500   296.66807     -53711.919      9574.6877     -33526.381     -361.44692      123237.56    
   1690000   300.36673     -53715.125      9474.6365     -33497.35       720.2967       123528.96    
   1692500   295.21144     -53631.045      9432.3193     -33639.975     -226.0427       124004.11    
   1695000   298.48892     -53722.32       9566.5144     -33479.83      -220.45621      123459.81    
   1697500   296.39635     -53709.753      9683.3456     -33425.276     -304.6465       123586.21    
   1700000   301.98978     -53783.792      9567.8525     -33414.749      157.76146      123311.52    
   1702500   300.54387     -53822.327      9393.7322     -33679.121     -50.150035      123068.12    
   1705000   303.35576     -53739.323      9499.1329     -33390.143     -179.4767       123111.66    
   1707500   301.53081     -53739.157      9573.7041     -33380.679     -160.39242      122939.51    
   1710000   300.28416     -53690.111      9536.6717     -33413.254     -825.1944       123930.94    
   1712500   300.10182     -53692.083      9488.6215     -33469.797     -391.5925       123525.9     
   1715000   298.19646     -53770.759      9440.0138     -33665.23       621.56762      123222.59    
   1717500   300.20614     -53713.245      9547.5235     -33428.326     -542.273        123605.43    
   1720000   301.46986     -53806.748      9569.7075     -33454.447     -1229.0224      122771.06    
   1722500   299.66378     -53684.392      9435.4348     -33530.961      347.09851      123598.21    
   1725000   299.82354     -53768.666      9445.5565     -33599.399      178.64568      123345.91    
   1727500   301.10471     -53735.204      9589.8638     -33375.807     -1443.7341      123510.29    
   1730000   301.85752     -53781.567      9523.8079     -33461.3        43.223346      123164.4     
   1732500   301.55255     -53703.363      9530.6589     -33387.152      773.32882      123180.22    
   1735000   298.20096     -53771.62       9658.3145     -33447.629     -589.68228      123217.71    
   1737500   299.37022     -53609.183      9676.2829     -33225.404     -855.8853       124240.03    
   1740000   303.40034     -53708.522      9570.1362     -33286.745      72.297992      123915.91    
   1742500   297.70517     -53686.181      9450.0151     -33588.223      1212.2799      123289.69    
   1745000   300.19309     -53746.596      9445.4566     -33564.211     -614.03341      123271.57    
   1747500   299.5699      -53773.846      9521.5798     -33537.628     -703.60738      123344       
   1750000   296.55453     -53746.321      9485.027      -33654.505      867.52162      123372.38    
   1752500   300.17615     -53722.736      9472.7593     -33513.654      578.44076      123256.71    
   1755000   302.1084      -53776.802      9557.454      -33413.916      493.48952      123449.6     
   1757500   304.78221     -53797.116      9466.7312     -33429.319      169.33321      122915.16    
   1760000   299.71232     -53794.154      9501.2411     -33573.181     -651.70094      122986.04    
   1762500   298.35969     -53783.727      9471.9026     -33640.471     -444.86439      123182.27    
   1765000   299.49148     -53771.326      9383.42       -33676.072      276.8879       123346.36    
   1767500   301.23216     -53745.581      9670.5451     -33300.944     -664.45039      123216.73    
   1770000   296.58931     -53748.277      9486.1813     -33654.063     -1211.0514      123319.79    
   1772500   296.78854     -53702.591      9550.8226     -33536.61      -552.86481      123394.99    
   1775000   299.25567     -53834.267      9640.7279     -33490.139      181.31349      123148.73    
   1777500   300.46598     -53750.338      9461.5849     -33542.065      487.42209      123509.85    
   1780000   296.96957     -53728.474      9505.3275     -33601.513     -515.05322      123524.74    
   1782500   300.53571     -53595.077      9464.592      -33381.302     -482.52526      123680.29    
   1785000   300.82789     -53716.337      9578.7262     -33377.978      972.26803      123277.84    
   1787500   299.01969     -53671.919      9335.7794     -33641.18      -504.94402      123421.91    
   1790000   299.97896     -53646.475      9481.717      -33435.489      158.09302      123454.6     
   1792500   303.03258     -53587.488      9612.8626     -33136.138     -809.45922      123979.79    
   1795000   299.62042     -53691.747      9497.9088     -33477.392     -1286.2608      123369.94    
   1797500   298.73865     -53683.906      9482.2174     -33516.782     -370.028        123479.64    
   1800000   302.40357     -53761.843      9418.5865     -33527.266      805.69565      122900.51    
   1802500   298.93878     -53751.087      9518.4927     -33540.529      217.49773      123083.99    
   1805000   296.66831     -53718.199      9545.8066     -33561.534      154.4297       123073.64    
   1807500   302.91455     -53716.932      9472.9762     -33409.689      144.6394       122754.64    
   1810000   298.78844     -53765.404      9544.9325     -33533.783     -109.09211      123031.53    
   1812500   301.33681     -53740.957      9367.763      -33595.358      531.12808      123465.95    
   1815000   298.67791     -53730.399      9447.8504     -33599.814     -32.068723      123219       
   1817500   302.36811     -53750.916      9393.3074     -33542.887      255.09582      123267.55    
   1820000   298.42158     -53835.569      9507.8351     -33654.167     -806.88718      122957.39    
   1822500   301.75979     -53699.227      9541.1685     -33365.095      1130.702       123618.95    
   1825000   302.882       -53733.809      9498.3639     -33402.343      75.399065      123058.95    
   1827500   300.00564     -53777.3        9367.8276     -33679.249      74.979019      123159.26    
   1830000   300.36699     -53709.871      9414.9948     -33551.728      630.98942      122792.66    
   1832500   298.3469      -53709.198      9537.5579     -33500.745     -7.3268742      123469.27    
   1835000   300.43082     -53689.061      9635.9049     -33307.725     -77.639745      123523.17    
   1837500   303.07541     -53664.109      9439.6091     -33384.481      140.30876      123247.62    
   1840000   302.26565     -53731.066      9610.0118     -33309.997     -259.57303      123608.13    
   1842500   301.71826     -53727.221      9579.9496     -33355.793      206.02561      122944.75    
   1845000   300.5759      -53724.789      9651.4259     -33322.743      265.19822      123242.62    
   1847500   298.22581     -53715.262      9468.6614     -33580.036     -321.09662      123514.62    
   1850000   299.00245     -53706.937      9612.426      -33400.168      289.9326       123751.13    
   1852500   303.39268     -53827.714      9519.4872     -33456.859     -316.79458      123162.68    
   1855000   301.15063     -53830.633      9377.3958     -33682.061      176.01139      122730.94    
   1857500   302.25235     -53732.826      9453.6697     -33468.575     -1150.9627      123651.93    
   1860000   299.39918     -53782.001      9614.8153     -33458.653      245.31912      123043.89    
   1862500   297.36175     -53768.161      9544.9908     -33587.51       413.75333      123365.83    
   1865000   301.58475     -53727.975      9524.6307     -33416.641      189.03156      123054.4     
   1867500   297.96778     -53812.187      9533.6615     -33621.189      461.06721      122610.11    
   1870000   298.54202     -53792.582      9624.0067     -33490.701     -462.74433      123165.66    
   1872500   297.14756     -53780.379      9368.4563     -33783.923      356.38704      123482.96    
   1875000   302.47349     -53703.488      9383.7948     -33501.202     -50.728771      123116       
   1877500   297.43449     -53711.883      9535.5589     -33538.062     -1438.1813      123316.27    
   1880000   303.19396     -53653.679      9523.6223     -33285.797     -334.35114      123475.17    
   1882500   299.71582     -53729.494      9482.4728     -33527.163     -637.41706      123778.35    
   1885000   304.2791      -53705.34       9528.093      -33294.175      50.926666      123406.6     
   1887500   298.03095     -53710          9562.9414     -33487.463     -144.42788      123545.97    
   1890000   297.35126     -53765.3        9535.6979     -33594.317     -366.67151      123002.43    
   1892500   298.48865     -53691.724      9411.9858     -33603.772      734.89489      123494.41    
   1895000   299.55665     -53722.355      9556.8029     -33451.388     -953.27467      123312.2     
   1897500   301.48855     -53735.09       9556.9959     -33394.832     -134.96909      123409.11    
   1900000   297.33813     -53870.075      9563.3111     -33671.948     -600.60272      123009.52    
   1902500   301.97131     -53818.212      9437.186      -33580.497      600.24177      123394.64    
   1905000   302.30781     -53700.004      9445.7804     -33441.659     -1167.1199      123602.16    
   1907500   300.01727     -53767.869      9556.3246     -33480.904     -346.33614      123404.32    
   1910000   301.73399     -53706.241      9524.2027     -33389.997      232.94392      123292.05    
   1912500   297.68077     -53599.748      9553.848      -33398.829     -308.81949      124150.93    
   1915000   299.67983     -53692.964      9517.3136     -33457.08       21.496939      123483.2     
   1917500   300.31175     -53708.296      9467.678      -33499.446      219.79067      123113.72    
   1920000   298.88283     -53716.108      9517.9783     -33508.066     -552.57636      123703.75    
   1922500   303.65914     -53617.504      9502.8924     -33253.714      532.87883      123757.29    
   1925000   302.48325     -53732.238      9404.0735     -33509.325     -422.5242       123496.87    
   1927500   298.66732     -53743.015      9592.9043     -33467.755      551.26355      123072.82    
   1930000   297.82769     -53810.167      9572.0199     -33585.821      199.5094       123162.1     
   1932500   302.41501     -53762.114      9498.4303     -33447.285     -313.28388      123036.15    
   1935000   299.43546     -53738.699      9604.8639     -33424.005      85.71775       123357.65    
   1937500   300.42827     -53699.918      9526.5695     -33428.009     -248.06541      123376.98    
   1940000   298.28554     -53716.369      9409.294      -33638.374     -264.41133      123156.09    
   1942500   300.19917     -53799.241      9578.9853     -33483.11      -210.50262      123218.2     
   1945000   298.48327     -53803.512      9562.2295     -33565.509     -913.05786      123072.18    
   1947500   297.82629     -53725.284      9435.0529     -33637.955      376.94478      123134.3     
   1950000   306.02326     -53716.592      9431.7535     -33339.384     -1070.1049      123787.26    
   1952500   302.23161     -53754.715      9537.6621     -33407.213      175.95375      123738.32    
   1955000   302.01408     -53656.618      9466.5612     -33387.998      534.71884      123534.21    
   1957500   303.00701     -53712.075      9430.2771     -33444.225     -502.82481      123534.51    
   1960000   300.02675     -53739.911      9459.9592     -33548.973      173.17088      123525.29    
   1962500   301.63716     -53697.493      9588.5023     -33320.413      177.50363      123298.18    
   1965000   299.68008     -53688.873      9552.5532     -33417.741      904.15956      123317.07    
   1967500   298.72343     -53709.284      9601.9647     -33422.957      226.30228      123744.54    
   1970000   297.67696     -53687.528      9628.6461     -33411.947     -175.56873      123398.59    
   1972500   295.41013     -53744.928      9440.9423     -33738.129     -892.88499      123426.27    
   1975000   294.65445     -53711.853      9550.5718     -33622.452     -639.20122      123579.28    
   1977500   301.0866      -53640.945      9564.4736     -33307.585     -533.55254      123937.25    
   1980000   302.03771     -53728.761      9488.5204     -33437.337      637.72844      123357.86    
   1982500   299.76021     -53678.861      9488.6689     -33468.746      731.89509      123473.91    
   1985000   303.88085     -53718.435      9493.4647     -33356.143     -51.801876      123481.45    
   1987500   300.20371     -53658.573      9551.1505     -33370.115     -102.98845      123813.81    
   1990000   299.47147     -53702.537      9499.3729     -33492.046      287.66742      123176.65    
   1992500   297.03317     -53780.066      9490.6063     -33665.552     -138.7678       123251.61    
   1995000   299.983       -53791.231      9528.9341     -33532.883      153.35606      122718.64    
   1997500   303.07585     -53616.331      9454.3499     -33321.946      101.24718      123355.57    
   2000000   303.39481     -53839.782      9500.9291     -33487.41       1008.9071      123058.79    
   2002500   300.28235     -53745.643      9607.6382     -33397.885      31.689438      123433.63    
   2005000   302.35801     -53814.489      9506.7088     -33493.42       439.48791      123108.44    
   2007500   296.60636     -53710.932      9546.2854     -33556.004      719.99007      123461.08    
   2010000   296.36522     -53707.334      9511.0234     -33596.293     -602.28038      123817.66    
   2012500   302.77715     -53704.864      9545.6693     -33329.843      183.52903      123363.47    
   2015000   297.87618     -53745.58       9664.2354     -33427.285     -103.08928      123000.54    
   2017500   297.3253      -53718.796      9614.7474     -33469.692     -907.16634      123364.9     
   2020000   297.54138     -53716.755      9642.549      -33432.121      314.9032       123658.76    
   2022500   302.4321      -53717.464      9440.0471     -33460.407     -261.56316      123572.78    
   2025000   302.37348     -53689.159      9398.783      -33475.462      597.22195      123034.66    
   2027500   298.76526     -53774.159      9372.1697     -33716.13      -173.5085       123333.6     
   2030000   302.15514     -53787.034      9497.2966     -33482.633      81.034888      123403.29    
   2032500   302.01602     -53702.645      9523.5751     -33376.942      712.69139      123444.99    
   2035000   302.34429     -53739.726      9476.3258     -33449.531     -139.10801      123529.94    
   2037500   299.85727     -53765.263      9542.9761     -33497.371      92.611855      123161.45    
   2040000   302.11359     -53691.835      9484.4381     -33401.779     -146.13021      123659.6     
   2042500   299.40597     -53678.46       9534.341      -33435.344      176.69101      123520.83    
   2045000   297.75138     -53677.198      9614.8523     -33412.75      -54.515468      123495.33    
   2047500   299.43957     -53683.379      9394.9084     -33578.494     -763.83604      123793.75    
   2050000   298.35881     -53679.278      9607.8431     -33400.113      199.25716      123150.18    
   2052500   301.83321     -53724.557      9453.3223     -33475.644      659.3494       123331.09    
   2055000   299.37622     -53694.36       9489.3585     -33497.29      -103.74582      123524.66    
   2057500   299.07125     -53653.669      9625.9208     -33330.945      141.51093      123527.63    
   2060000   298.51852     -53633.369      9615.8063     -33340.529      395.48007      122979.19    
   2062500   303.33569     -53708.858      9495.5003     -33364.029     -587.78487      123509.56    
   2065000   304.06085     -53678.308      9594.1903     -33208.852      942.80744      123674.17    
   2067500   296.382       -53676.337      9446.9347     -33628.785     -716.6849       123384.91    
   2070000   300.09768     -53666.017      9592.5201     -33339.982      47.956983      123318.45    
   2072500   299.23155     -53730.487      9470.1076     -33557.842      276.32938      123639.04    
   2075000   298.54865     -53681.947      9589.9449     -33413.89      -181.81162      123425.74    
   2077500   300.61187     -53682.268      9537.008      -33393.353      502.06336      123705.05    
   2080000   301.8505      -53641.882      9521.437      -33324.237     -508.09291      124126.11    
   2082500   300.9578      -53667.372      9364.6563     -33538.436      404.08102      123825.87    
   2085000   299.70547     -53647.659      9473.0066     -33455.164      1204.1834      123752.67    
   2087500   298.33326     -53621.845      9563.0467     -33388.39       202.68775      123511.28    
   2090000   303.71031     -53679.502      9535.6981     -33281.076     -156.8173       123966.69    
   2092500   301.98058     -53654.947      9428.9399     -33425.146      354.54615      123428.05    
   2095000   295.09725     -53643.284      9583.3295     -33505.288     -325.24588      123984.54    
   2097500   299.71513     -53633.291      9551.4421     -33362.016     -865.15981      123315.38    
   2100000   300.73353     -53726.539      9575.4163     -33394.865     -641.40795      123497.94    
   2102500   300.69658     -53823.571      9510.9137     -33557.721     -386.37698      123379.4     
   2105000   298.38974     -53821.114      9491.3437     -33657.342      930.01088      123257.1     
   2107500   299.63196     -53771.903      9526.6736     -33528.371     -859.93721      123486.13    
   2110000   299.26624     -53708.945      9455.8368     -33549.33       225.55671      123397.34    
   2112500   296.78235     -53719.474      9506.6809     -33597.856      663.80844      123020.14    
   2115000   297.68371     -53740.471      9436.1278     -33657.168     -1094.2312      123611.45    
   2117500   299.96421     -53786.638      9505.6509     -33552.245      267.36969      123226.77    
   2120000   297.54482     -53696.723      9493.3147     -33561.2       -830.66617      123431.34    
   2122500   299.65493     -53679.556      9418.3583     -33543.518      320.91975      123448.14    
   2125000   301.18138     -53749.808      9507.1507     -33470.381      1642.3619      122953.22    
   2127500   300.63017     -53772.099      9506.028      -33513.51       520.80417      123294.08    
   2130000   295.95315     -53711.171      9488.9671     -33636.925     -730.29984      123644.81    
   2132500   301.67519     -53750.59       9469.1856     -33491.467      146.22127      123285.28    
   2135000   297.56269     -53809.048      9420.7396     -33745.461      404.40163      122729.63    
   2137500   299.3307      -53725.617      9503.4214     -33516.112     -132.57377      123367.7     
   2140000   301.17084     -53746.61       9558.4646     -33416.247     -51.905062      123281.67    
   2142500   299.86934     -53730.818      9429.4968     -33575.973      1338.3629      122994.46    
   2145000   300.53781     -53711.123      9517.7442     -33444.121      1196.4843      122956.74    
   2147500   298.5075      -53709.369      9407.8187     -33624.91       444.78715      123013.21    
   2150000   304.40325     -53677.594      9570.0031     -33220.079      563.01943      123381.88    
   2152500   300.50357     -53680.299      9420.694      -33511.572     -978.94781      123506.93    
   2155000   299.69445     -53695.392      9511.4476     -33464.851      643.65424      123466.9     
   2157500   302.03162     -53720.989      9563.2466     -33355.056     -432.07341      123663.92    
   2160000   298.75686     -53705.854      9474.5364     -33545.759     -120.58389      123430.73    
   2162500   294.95734     -53794.02       9409.7042     -33834.653      334.68922      123243.18    
   2165000   299.75998     -53665.368      9566.7295     -33377.201      712.54979      123448.17    
   2167500   297.86849     -53687.337      9537.636      -33495.916      71.931876      123191.41    
   2170000   302.46865     -53728.93       9635.1802     -33275.432     -806.70353      122941.79    
   2172500   301.6863      -53740.21       9568.4809     -33381.394      341.94032      123091.75    
   2175000   298.95615     -53854.885      9511.4938     -33650.704      1045.9436      122504.67    
   2177500   300.42221     -53732.965      9387.6474     -33600.194      294.19157      122881.33    
   2180000   299.33368     -53767.531      9552.3055     -33509.036     -12.679527      123357.72    
   2182500   298.27156     -53778.841      9594.6055     -33516.034      1258.502       123099.85    
   2185000   300.00584     -53740.991      9404.9816     -33605.778     -114.02427      123220.85    
   2187500   302.0628      -53790.153      9461.0135     -33525.338      284.7845       123356.97    
   2190000   298.60346     -53846.827      9572.1592     -33594.596     -333.09721      122695.32    
   2192500   302.54443     -53769          9641.4111     -33306.561      171.39604      123395.15    
   2195000   299.57108     -53703.804      9577.8986     -33411.224     -5.4262995      123475.22    
   2197500   300.37778     -53810.219      9532.5296     -33534.155      634.75175      123012.74    
   2200000   299.23013     -53700.145      9502.6487     -33495.01      -18.009827      123564.64    
   2202500   301.26336     -53683.67       9593.3231     -33315.138      1651.2933      123303.58    
   2205000   301.88587     -53770.428      9425.6095     -33547.345      88.684842      122947.95    
   2207500   299.79649     -53724.192      9433.8887     -33567.561      278.62868      123113.91    
   2210000   303.99073     -53689.077      9416.1262     -33400.194      274.13765      123745.04    
   2212500   300.57633     -53698.596      9657.2719     -33290.689      346.58197      123503.47    
   2215000   300.46779     -53688.324      9441.0633     -33500.508      490.71814      123472.29    
   2217500   297.77346     -53709.801      9589.8242     -33469.591      484.37261      123394.53    
   2220000   300.07365     -53720.053      9659.9026     -33327.494      308.67981      123133.72    
   2222500   300.6378      -53754.265      9454.6368     -33546.794      168.26897      123415.31    
   2225000   303.56265     -53715.777      9505.0043     -33353.327      441.33985      123407.9     
   2227500   296.90218     -53733.341      9496.3355     -33617.782      343.75351      123415.32    
   2230000   297.06754     -53680.848      9412.7575     -33642.953      308.85618      123728.15    
   2232500   297.4912      -53760.719      9584.6614     -33535.767      223.7347       122963.57    
   2235000   298.13611     -53740.66       9565.603      -33511.701     -538.89034      123398.66    
   2237500   299.47177     -53647.193      9531.4221     -33404.642      233.24865      123349.75    
   2240000   298.38475     -53689.352      9460.5654     -33556.537     -770.20098      123373.97    
   2242500   301.59754     -53831.991      9492.0999     -33552.731      714.79511      122898.39    
   2245000   304.0455      -53786.126      9528.3557     -33383.054     -276.28232      123285.86    
   2247500   302.80484     -53792.022      9512.5209     -33449.159      152.23747      123108.75    
   2250000   300.8273      -53798.739      9503.4247     -33535.702     -740.12641      123201.27    
   2252500   297.90455     -53675.911      9528.7332     -33492.103      709.27754      123556.81    
   2255000   301.24558     -53686.561      9559.9307     -33352.058      491.4495       123401.05    
   2257500   303.97161     -53734.994      9534.2148     -33328.706      486.80652      123548.35    
   2260000   301.67649     -53601.642      9520.8974     -33290.761      179.91609      124118.39    
   2262500   300.43339     -53657.976      9501.8513     -33410.602     -468.94881      123758.82    
   2265000   298.13982     -53692.54       9416.5243     -33612.527     -299.68361      123741.78    
   2267500   301.75419     -53720.678      9454.3552     -33473.559     -579.06838      123604.35    
   2270000   301.559       -53655.257      9493.569      -33375.905     -449.77538      123629.16    
   2272500   299.57488     -53643.146      9481.456      -33446.873     -152.467        123748.93    
   2275000   302.07636     -53750.529      9638.8526     -33307.389      86.439016      123278.91    
   2277500   300.87451     -53598.751      9510.2006     -33327.25      -18.590154      123688.26    
   2280000   303.61113     -53677.455      9438.489      -33379.786      311.23958      123517.07    
   2282500   298.1561      -53649.437      9472.7897     -33512.576     -427.1928       123742.16    
   2285000   298.45599     -53768.128      9582.4045     -33510.926      408.43813      123172.63    
   2287500   296.88643     -53738.444      9484.2946     -33635.49       243.22157      123432.16    
   2290000   297.7723      -53713.875      9599.2091     -33464.321     -278.0932       123260.32    
   2292500   300.83363     -53709.24       9638.8837     -33310.518     -63.327291      123817.27    
   2295000   301.15352     -53683.003      9428.1114     -33483.612      570.78262      123260.62    
   2297500   302.29876     -53678.167      9580.4679     -33285.458      739.89722      123612.79    
   2300000   296.85897     -53712.768      9460.2311     -33634.86      -268.20147      123347.43    
   2302500   297.40324     -53704.847      9521.0954     -33546.607      399.80859      123639.38    
   2305000   301.79386     -53646.472      9555.968      -33296.321      449.75964      123811.18    
   2307500   303.45902     -53681.912      9496.7039     -33331.468     -396.85033      123727.48    
   2310000   298.33342     -53650.36       9540.9835     -33438.963      48.579571      123654.48    
   2312500   302.96171     -53672.962      9619.922      -33217.087     -252.69649      123563.8     
   2315000   301.37088     -53671          9536.1742     -33355.772     -1573.3936      123602.71    
   2317500   300.76789     -53667.8        9294.9091     -33615.404      260.77657      123462.34    
   2320000   305.2658      -53736.188      9507.8223     -33310.003     -617.28603      123312.03    
   2322500   300.84222     -53675.657      9520.061      -33395.45      -966.98762      123635.66    
   2325000   303.17918     -53691.66       9475.5764     -33372.353     -912.91574      123459.18    
   2327500   299.81413     -53758.663      9675.4058     -33359.883      165.04842      123300.49    
   2330000   298.21352     -53765.127      9633.2482     -33465.754     -406.24414      123415.53    
   2332500   302.87392     -53711.233      9613.7063     -33264.714     -117.44137      123153.85    
   2335000   299.70111     -53579.237      9540.0532     -33319.852     -149.98839      123848.56    
   2337500   302.31221     -53632.097      9660.2531     -33159.121      740.62074      123736.19    
   2340000   295.34476     -53669.011      9423.5006     -33681.991     -373.4473       123616.16    
   2342500   301.82012     -53650.629      9471.9746     -33383.533     -760.67625      123752.06    
   2345000   301.73881     -53769.925      9570.5629     -33407.149     -277.57368      123557.04    
   2347500   299.36123     -53741.387      9517.8768     -33516.336     -294.61482      122962.79    
   2350000   297.58408     -53762.161      9426.9605     -33691.589     -597.19983      123420.13    
   2352500   299.34585     -53704.717      9433.5533     -33564.539     -568.48387      123698.1     
   2355000   303.58775     -53681.576      9581.0367     -33242.195     -276.03812      123591.86    
   2357500   297.72705     -53612.601      9467.741      -33496.134     -26.201739      123891.84    
   2360000   296.81518     -53670.155      9408.7139     -33645.329      612.14421      123689.31    
   2362500   298.36011     -53709.681      9465.9173     -33572.396      324.5111       123257.3     
   2365000   301.95706     -53739.281      9434.2908     -33504.971     -49.696632      123309.64    
   2367500   300.03645     -53702.189      9514.551      -33456.312      492.22773      123027.6     
   2370000   301.67866     -53662.339      9442.5891     -33429.688      947.73566      123230.3     
   2372500   299.41553     -53620.142      9544.5294     -33366.496      213.30508      123553.61    
   2375000   303.64558     -53664.318      9511.8594     -33292.046      131.11704      123393.46    
   2377500   303.19088     -53755.933      9606.5442     -33305.239     -643.49671      123290.48    
   2380000   297.58557     -53716.667      9479.4014     -33593.6       -194.32312      123523.21    
   2382500   298.86892     -53723.247      9454.9583     -33578.722      1064.5768      123407.57    
   2385000   299.01661     -53639.422      9513.8151     -33430.757      168.25463      123817.45    
   2387500   301.67911     -53838.543      9457.0411     -33591.424     -182.3084       123162.63    
   2390000   301.76552     -53746.541      9551.3732     -33401.999      750.14321      123282.04    
   2392500   301.70162     -53776.049      9461.4598     -33523.705      392.67921      123461.43    
   2395000   303.17394     -53786.396      9598.2189     -33344.634     -166.07548      123345.17    
   2397500   299.53488     -53705.381      9550.9734     -33441.022     -1003.3852      123326.2     
   2400000   296.74158     -53672.058      9679.3828     -33379.197     -492.70566      123667.41    
   2402500   295.39218     -53723.783      9420.6576     -33737.911      379.58833      123252.44    
   2405000   299.65615     -53702.692      9600.2758     -33384.693     -124.60872      123034.06    
   2407500   296.16536     -53726.571      9504.6309     -33629.07       701.44994      122781.18    
   2410000   298.92498     -53663.118      9500.7076     -33470.838     -372.09825      123285.2     
   2412500   298.90476     -53672.333      9458.1974     -33523.287     -390.89308      123813.47    
   2415000   298.57759     -53644.095      9551.1461     -33413.802     -223.62149      123750.95    
   2417500   304.23909     -53691.805      9564.6985     -33245.466     -538.1062       123477.66    
   2420000   295.68516     -53648.508      9529.1188     -33543.695      284.26123      123428.42    
   2422500   299.48028     -53644.003      9566.3602     -33366.209      565.57828      123692.17    
   2425000   299.23845     -53662.447      9495.503      -33464.16      -300.12274      123528.8     
   2427500   298.89898     -53723.072      9547.6269     -33484.803     -178.17961      122922.2     
   2430000   297.62272     -53665.971      9514.9465     -33506.031      8.0191268      123354.58    
   2432500   298.77934     -53610.048      9605.2914     -33318.394     -363.96586      123803.16    
   2435000   297.93334     -53639.104      9526.1707     -33456.829      665.53715      123449.23    
   2437500   299.44036     -53568.431      9426.7363     -33431.69      -480.32453      123885.7     
   2440000   302.26446     -53612.968      9524.8258     -33277.128      104.92274      123589.49    
   2442500   300.39023     -53619.966      9496.0114     -33379.975     -555.76168      123803.54    
   2445000   301.66083     -53653.858      9494.5083     -33369.925     -611.8169       123941.04    
   2447500   298.71499     -53655.807      9405.1779     -33566.567     -877.75509      123583.32    
   2450000   296.12367     -53620.276      9527.7041     -33501.194      966.30461      123198.04    
   2452500   301.97038     -53596.094      9530.6315     -33264.967     -860.55252      123777.55    
   2455000   302.46623     -53749.318      9567.1151     -33363.972      586.43986      122927.03    
   2457500   297.10882     -53741.576      9529.1234     -33585.839      35.705769      123253.84    
   2460000   301.3979      -53716.063      9611.7517     -33324.292      350.4726       123147.27    
   2462500   298.44241     -53645.213      9654.8281     -33316.072      326.09913      123295.56    
   2465000   301.40923     -53666.048      9522.6026     -33363.02      -178.90726      123692.06    
   2467500   297.70693     -53702.542      9500.7512     -33553.785     -69.073922      123251.17    
   2470000   302.34935     -53697.825      9487.7824     -33395.993     -674.65981      123607.23    
   2472500   300.24481     -53705.358      9485.026      -33481.554     -869.19217      123561.51    
   2475000   303.72937     -53673.42       9483.8545     -33326.156      712.883        123523.02    
   2477500   296.04147     -53669.554      9480.5821     -33600.534      528.61026      123365.79    
   2480000   298.62601     -53611.166      9455.7859     -33474.501      272.35376      123877.62    
   2482500   300.99205     -53659.632      9538.9434     -33355.184     -483.48107      123710.32    
   2485000   302.70813     -53619.232      9518.3111     -33274.038      407.9433       124154.12    
   2487500   298.67406     -53692.388      9364.6158     -33645.174     -1040.0531      123602.24    
   2490000   298.91396     -53638.863      9532.1364     -33415.549     -884.41904      123722.85    
   2492500   300.31001     -53667.043      9496.8804     -33429.052     -81.486146      123878.28    
   2495000   298.31413     -53717.434      9535.9471     -33511.763     -174.43425      123529.99    
   2497500   297.99842     -53653.667      9631.8636     -33363.371     -8.8495662      123628.36    
   2500000   303.24522     -53690.006      9549.6175     -33294.295     -545.6911       123679.83    
   2502500   299.69805     -53659.014      9487.7688     -33452.023     -185.86022      123746.17    
   2505000   299.65901     -53691.275      9423.5351     -33549.914     -69.854916      123222.11    
   2507500   300.29541     -53660.015      9474.2974     -33445.13      -275.35523      123841.62    
   2510000   297.54969     -53682.496      9456.1962     -33583.917     -234.24069      123384.32    
   2512500   298.00066     -53649.215      9661.8907     -33328.813     -1081.92        123836.75    
   2515000   299.64333     -53661.762      9526.9022     -33417.595     -358.75942      123650.82    
   2517500   296.75508     -53757.356      9550.4548     -33592.94       452.17879      122919.48    
   2520000   300.22338     -53700.605      9459.8065     -33502.787      739.96493      123260.19    
   2522500   300.73656     -53660.259      9529.9561     -33373.936     -438.65074      123896.83    
   2525000   297.95706     -53637.764      9588.9132     -33391.898      1586.4302      123455.19    
   2527500   298.38037     -53708.676      9464.5569     -33572.026      168.4403       123221.2     
   2530000   298.82609     -53750.071      9451.2816     -33610.754      925.78455      123215.02    
   2532500   303.1252      -53715.475      9479.0237     -33394.651     -121.59858      123457.17    
   2535000   302.52063     -53756.667      9538.4041     -33398.087     -381.58329      122924.19    
   2537500   301.56794     -53741.267      9518.2716     -33436.894     -1134.8138      123237.82    
   2540000   296.74854     -53847.938      9569.2059     -33665.004     -1007.7786      123295.29    
   2542500   303.21774     -53703.467      9532.533      -33325.823     -700.28078      123558.59    
   2545000   299.41169     -53673.789      9547.8158     -33416.993     -376.21836      123748.85    
   2547500   298.77872     -53725.824      9520.12       -33519.363     -818.72939      123250.94    
   2550000   302.12497     -53753.576      9460.3961     -33487.154      640.12982      122962.39    
   2552500   302.54165     -53781.949      9561.75       -33399.271     -777.91641      123146.11    
   2555000   299.82724     -53699.61       9493.2342     -33482.533     -551.31299      123485.37    
   2557500   299.10358     -53671.824      9563.8629     -33410.001     -9.6838146      123595.13    
   2560000   299.46618     -53725.427      9423.0275     -33591.471      610.82957      123205.29    
   2562500   298.15173     -53722.64       9543.1381     -33515.587      560.9632       123396.6     
   2565000   301.49461     -53653.478      9459.1497     -33410.849      130.4103       123610.49    
   2567500   300.29341     -53694.362      9516.7296     -33437.117     -455.93226      123339.93    
   2570000   298.02958     -53732.513      9443.7295     -33629.237      42.073821      123707.76    
   2572500   297.91997     -53745.615      9584.8809     -33505.108     -177.14122      123476.87    
   2575000   302.76745     -53720.488      9468.2807     -33423.203      897.49602      123447.39    
   2577500   303.17448     -53685.621      9465.3083     -33376.75      -1.5299502      123137.78    
   2580000   299.49515     -53679.513      9607.4452     -33360.103      731.02256      123358.59    
   2582500   299.45549     -53706.898      9548.3963     -33447.955      512.58435      123294.03    
   2585000   302.54269     -53765.777      9422.7658     -33522.045     -531.86694      123227.42    
   2587500   297.26857     -53867.201      9550.2455     -33684.627      115.25245      122720.4     
   2590000   296.88659     -53792.092      9402.601      -33770.825      577.03845      123137.35    
   2592500   301.9685      -53682.533      9652.6441     -33229.46      -634.56521      123766.43    
   2595000   298.44232     -53696.124      9734.1877     -33287.627      756.2424       123438.26    
   2597500   296.2971      -53708.954      9462.7514     -33648.621     -568.31062      123860.59    
   2600000   304.77083     -53696.092      9455.5411     -33339.892      645.47084      123154.33    
   2602500   298.98599     -53787.434      9505.6413     -33588.039     -1033.7859      123102.15    
   2605000   298.78988     -53750.429      9508.5107     -33555.178      558.61059      122940.03    
   2607500   299.63379     -53717.244      9625.9388     -33374.381     -271.31422      123142.82    
   2610000   300.72177     -53719.617      9471.1607     -33492.619     -284.70852      123031.95    
   2612500   300.67061     -53709.681      9560.9599     -33394.714     -336.35372      123382.48    
   2615000   301.07999     -53626.635      9562.9281     -33295.058      671.43054      123735.92    
   2617500   299.82202     -53700.829      9645.0625     -33332.11       303.59161      123501.04    
   2620000   298.84122     -53826.484      9459.4375     -33678.47       73.51023       122971.84    
   2622500   296.38273     -53779.281      9446.7095     -33731.928      1001.8698      122710.6     
   2625000   298.21863     -53768.87       9511.5497     -33591.013     -369.71351      123394.88    
   2627500   301.69326     -53750.814      9450.3135     -33509.917      691.5321       123243.71    
   2630000   300.46787     -53828.277      9527.9283     -33553.593      26.013687      122658.45    
   2632500   298.32202     -53763.385      9551.3171     -33542.061      380.89131      122833.26    
   2635000   300.01661     -53760.003      9498.6508     -33530.736      684.88259      123225.06    
   2637500   298.90862     -53779.22       9355.2308     -33733.002      892.15384      123065.93    
   2640000   299.35317     -53737.177      9597.4927     -33432.797     -781.12014      123280.54    
   2642500   298.58188     -53702.925      9521.3043     -33502.321     -443.92849      123370.94    
   2645000   298.16364     -53752.955      9447.9081     -33640.706      297.5191       123175.19    
   2647500   299.6378      -53775.361      9582.9577     -33475.336      402.13972      122938.15    
   2650000   298.17134     -53673.591      9419.4505     -33589.523      169.75586      123613.97    
   2652500   302.10229     -53593.971      9556.1475     -33232.61       261.2525       123955.16    
   2655000   292.75596     -53662.608      9431.9199     -33759.762      21.852742      123685.86    
   2657500   295.26785     -53698.248      9536.512      -33600.968      497.85608      123726.57    
   2660000   299.02541     -53700.886      9489.7201     -33516.002     -301.91219      123662.88    
   2662500   301.23258     -53670.699      9296.6298     -33599.962     -803.00192      123516.67    
   2665000   303.15801     -53588.153      9501.6703     -33243.509      6.7341605      124001.37    
   2667500   301.22517     -53777.167      9480.1035     -33523.221     -236.01947      123479.97    
   2670000   300.49621     -53738.775      9652.8123     -33338.193     -21.128242      123143.92    
   2672500   299.36554     -53771.751      9538.3358     -33526.086      392.79654      123012.33    
   2675000   299.67739     -53731.312      9650.8842     -33361.944      104.41404      123223.46    
   2677500   295.89346     -53706.006      9602.48       -33520.381      226.26416      123375.46    
   2680000   302.02189     -53706.117      9555.1604     -33348.618      590.55827      123165.09    
   2682500   300.81301     -53684.824      9575.0061     -33350.718      904.00936      123197.96    
   2685000   303.16686     -53745.881      9441.1        -33461.491      862.7983       123537.52    
   2687500   297.40741     -53708.721      9488.329      -33583.098      11.845761      123315.34    
   2690000   299.97633     -53699.87       9702.8699     -33267.825      469.08527      123139.77    
   2692500   301.03693     -53659.683      9629.8224     -33262.751     -461.82647      123491.97    
   2695000   296.20292     -53715.822      9452.0082     -33669.601      204.29594      123302.85    
   2697500   296.20359     -53701.411      9565.0634     -33542.111     -139.72705      123540.07    
   2700000   300.70659     -53702.422      9419.638      -33527.49      -780.48006      123605.05    
   2702500   301.98889     -53652.921      9512.6223     -33339.141     -714.85462      123470.69    
   2705000   300.95661     -53644.84       9456.4233     -33424.18      -214.35433      123825.52    
   2707500   301.22377     -53661.654      9472.6476     -33415.214      549.75368      123729.33    
   2710000   303.31498     -53702.098      9498.8635     -33354.646     -545.97109      123578.8     
   2712500   301.16456     -53616.393      9435.0582     -33409.66       323.19956      123270.4     
   2715000   299.64551     -53626.021      9372.4952     -33536.183     -369.10378      123682.92    
   2717500   301.0898      -53671.563      9533.1172     -33369.445      157.28053      123495.1     
   2720000   300.37547     -53650.134      9479.7352     -33426.948     -685.24705      123920.1     
   2722500   304.95806     -53663.48       9447.2155     -33308.909     -575.51291      123542.03    
   2725000   302.55483     -53721.65       9595.3847     -33304.866      409.07687      123064.23    
   2727500   298.44449     -53779.18       9536.8284     -33567.965      56.225602      123596.63    
   2730000   305.58082     -53716.47       9523.1799     -33263.66      -293.39512      123805.49    
   2732500   303.97146     -53777.423      9474.9292     -33430.426      1237.2642      123301.97    
   2735000   300.18499     -53677.419      9535.6687     -33405.112      141.41759      124022.71    
   2737500   302.01674     -53688.611      9605.8489     -33280.608      455.47015      123736.37    
   2740000   299.17355     -53750.319      9578.4177     -33471.439      346.88999      123222.83    
   2742500   301.24484     -53728.674      9537.5645     -33416.563      145.41695      123189.81    
   2745000   300.08109     -53657.677      9647.2425     -33277.512      612.38753      123628.7     
   2747500   296.27754     -53693.337      9612.7784     -33483.677      17.408265      123487.66    
   2750000   301.02616     -53607.897      9388.64       -33452.533      65.676754      123744.87    
   2752500   303.84345     -53739.557      9483.1256     -33388.942      198.06916      123402.18    
   2755000   297.04422     -53635.364      9465.3914     -33545.67       659.49138      123517.02    
   2757500   297.52688     -53735.555      9508.4318     -33585.557     -473.63515      123192.31    
   2760000   299.00086     -53638.851      9512.0722     -33432.493     -566.63884      123788.14    
   2762500   305.68984     -53679.335      9540.369      -33205.437     -248.64616      124054.88    
   2765000   297.14707     -53704.736      9487.0975     -33589.657      1326.3848      123430.49    
   2767500   297.16803     -53699.892      9518.9385     -33552.221      134.92503      123615.08    
   2770000   300.8688      -53685.38       9360.5903     -33563.694      153.91306      123886.48    
   2772500   300.61784     -53633.189      9562.3682     -33318.701      488.9039       123653.06    
   2775000   301.59244     -53662.388      9553.6174     -33321.792      89.513927      123778.22    
   2777500   303.18272     -53704.888      9533.4627     -33327.567      787.82926      123637.93    
   2780000   299.86903     -53678.208      9528.1529     -33424.717     -446.91084      124042.61    
   2782500   299.29577     -53643.932      9524.5535     -33414.545     -157.02337      123703.1     
   2785000   295.95233     -53598.994      9463.377      -33550.367     -428.90682      123849.33    
   2787500   297.739       -53648.244      9501.6123     -33497.478      622.85144      123792.93    
   2790000   301.91927     -53658.197      9463.6377     -33395.891      821.54006      123542.67    
   2792500   301.2547      -53737.62       9420.8032     -33541.918      797.29458      123342.81    
   2795000   301.04701     -53626.973      9331.3513     -33528.151     -544.59747      123790.98    
   2797500   303.39069     -53647.671      9489.3085     -33307.067      321.96689      123844.39    
   2800000   299.74904     -53636.801      9388.2395     -33527.515     -1304.7525      123509.22    
   2802500   302.25863     -53727.582      9478.0732     -33438.703      616.6409       123320.8     
   2805000   297.68391     -53771.856      9534.605      -33590.068     -176.48837      123125.9     
   2807500   300.87752     -53748.788      9630.7858     -33356.594      717.98328      123120.21    
   2810000   300.71058     -53748.297      9562.3534     -33430.507      210.75682      123130.8     
   2812500   302.28563     -53673.043      9494.4718     -33366.8       -399.99306      123805.7     
   2815000   303.13233     -53706.31       9428.0476     -33436.207     -417.87221      123126.85    
   2817500   297.07362     -53558.511      9577.9755     -33355.18      -147.31997      124094.17    
   2820000   302.16902     -53720.729      9460.588      -33452.54      -1238.2843      123594.77    
   2822500   303.09843     -53650.601      9511.3678     -33298.39      -53.8266        123565.73    
   2825000   296.22284     -53741.852      9475.6607     -33671.266     -476.83581      123231.86    
   2827500   298.44288     -53755.701      9518.0307     -33563.341     -586.75536      123269.68    
   2830000   295.56239     -53774.483      9678.3037     -33524.876     -185.46977      123001.89    
   2832500   302.93866     -53711.356      9570.4138     -33305.814     -467.96009      123350.7     
   2835000   299.98513     -53669.857      9513.4224     -33426.944     -720.29797      123651.12    
   2837500   299.5808      -53690.329      9453.4223     -33521.878     -386.57869      123575.83    
   2840000   301.00952     -53693.623      9596.337      -33331.156      494.4939       123366.22    
   2842500   303.45388     -53819.071      9480.7046     -33484.81       596.28179      122750.25    
   2845000   305.74984     -53667.933      9581.3359     -33150.922     -68.095584      123253.7     
   2847500   298.16164     -53675.096      9583.4589     -33427.368     -508.96794      123754.66    
   2850000   302.23201     -53659.79       9574.1624     -33275.774     -235.2896       123699.77    
   2852500   299.98126     -53699.215      9523.9825     -33445.881     -954.12651      123790.6     
   2855000   301.43288     -53749.691      9561.8425     -33406.577      1290.531       122774.32    
   2857500   296.93632     -53620.831      9567.4005     -33432.986     -378.24406      123560.61    
   2860000   299.57966     -53722.683      9585.7567     -33421.938     -260.17246      123401.66    
   2862500   297.1885      -53659.278      9565.2365     -33464.578      903.9263       123314.05    
   2865000   295.29009     -53764.141      9536.2773     -33666.299     -713.45083      123002.38    
   2867500   297.35657     -53759.251      9507.3076     -33616.468     -57.325752      123405.46    
   2870000   300.24128     -53700.747      9420.7361     -33541.36       221.95988      123729.34    
   2872500   297.83658     -53702.391      9468.0092     -33581.738     -592.14823      123924.76    
   2875000   297.43461     -53710.927      9576.0712     -33496.59       407.08543      123255.78    
   2877500   298.45445     -53735.791      9629.906      -33431.142      486.04355      123326.3     
   2880000   302.16649     -53751.783      9525.9056     -33418.367     -180.28803      123583.94    
   2882500   300.44744     -53739.02       9560.2304     -33432.764     -160.94581      123383.75    
   2885000   300.44092     -53712.553      9493.4963     -33473.264     -916.94026      123304.72    
   2887500   302.29783     -53658.826      9479.5369     -33367.082     -413.2613       123815.69    
   2890000   298.28349     -53662.85       9604.7797     -33389.442     -274.48163      123768.39    
   2892500   299.77747     -53747.676      9579.2725     -33446.341      1325.0718      123387.46    
   2895000   298.74766     -53731.192      9491.4981     -33554.464     -100.84059      123291.04    
   2897500   301.01844     -53681.456      9570.3644     -33344.643      247.35035      123595.13    
   2900000   298.02112     -53697.376      9522.8017     -33515.331     -99.753645      123522.71    
   2902500   299.08629     -53661.625      9582.406      -33381.878      475.98724      123675.2     
   2905000   296.87428     -53750.59       9461.3062     -33671.058      452.12287      123559.51    
   2907500   304.04382     -53739.522      9585.5259     -33279.34      -754.85511      123443.36    
   2910000   300.8628      -53675.338      9573.9304     -33340.527     -851.96678      123075.87    
   2912500   304.13874     -53686.783      9514.1571     -33294.575      331.94292      123641.89    
   2915000   300.26707     -53645.465      9455.3887     -33450.502     -210.93034      123681.74    
   2917500   304.30884     -53650.016      9544.9299     -33220.951     -264.93103      124075.83    
   2920000   299.93711     -53632.615      9543.8762     -33360.967      967.9618       123570.36    
   2922500   299.45551     -53694.794      9452.3252     -33531.921      119.78297      123601.14    
   2925000   300.56349     -53696.936      9529.3392     -33417.42      -31.53894       123654.4     
   2927500   300.80236     -53680.246      9575.3041     -33346.222      176.7096       124058.88    
   2930000   298.37021     -53662.058      9475.8438     -33514.485      866.67711      123421.06    
   2932500   295.79153     -53750.027      9490.6791     -33679.849      17.373907      123355.04    
   2935000   301.81627     -53765.967      9444.3032     -33526.679      169.85489      122714.19    
   2937500   300.44722     -53721.719      9402.5559     -33573.145     -926.28519      123333.13    
   2940000   302.78542     -53722.523      9570.5195     -33322.356     -10.788515      123396.39    
   2942500   301.0257      -53705.162      9633.6438     -33304.811     -944.01205      124040.54    
   2945000   298.12933     -53643.117      9519.3865     -33460.617     -708.39714      123787.64    
   2947500   301.84712     -53813.833      9458.9052     -33558.84       664.67163      123106.85    
   2950000   297.28116     -53806.447      9426.5909     -33747.078     -718.2557       123196.07    
   2952500   299.87805     -53706.714      9496.1938     -33484.86       589.1015       123417.63    
   2955000   297.45814     -53735.858      9442.1973     -33654.553      767.27266      123535.21    
   2957500   299.65719     -53637.177      9577.1222     -33342.294     -943.81769      123938.18    
   2960000   300.13411     -53680.456      9370.4513     -33575.186      741.11775      123539.5     
   2962500   300.03059     -53721.254      9347.0122     -33643.126     -1176.3828      123804.73    
   2965000   298.74273     -53739.757      9475.9928     -33578.711      956.30984      122901.57    
   2967500   299.10004     -53749.964      9565.2211     -33486.909     -862.80664      123577.66    
   2970000   301.13349     -53681.423      9555.7227     -33355.137      91.161479      123792.08    
   2972500   295.28364     -53766.032      9532.6201     -33672.079      1046.8206      123288.33    
   2975000   298.58721     -53775.53       9557.6625     -33538.376      335.53585      123365.59    
   2977500   298.11681     -53801.305      9508.8011     -33629.838      65.854268      123137.67    
   2980000   300.64316     -53624.484      9432.876      -33438.583      157.91294      123705.26    
   2982500   301.37076     -53631.368      9551.6322     -33300.686      356.3346       123474.02    
   2985000   301.26154     -53667.608      9444.1703     -33448.294     -330.75318      123903.71    
   2987500   302.24923     -53714.864      9471.9799     -33432.414      215.47848      123138.46    
   2990000   301.41236     -53677.991      9454.2697     -33443.184     -542.05948      123610.97    
   2992500   304.24913     -53667.389      9468.2562     -33317.133      428.74119      123697.52    
   2995000   301.28771     -53743.862      9503.5146     -33464.268     -403.60567      123227.52    
   2997500   300.50969     -53667.521      9442.1081     -33477.161      290.86873      123623.36    
   3000000   301.34016     -53744.341      9531.7535     -33434.632      620.42196      123162.32    
   3002500   301.1418      -53703.088      9532.3552     -33399.872      789.27726      123475.81    
   3005000   304.20065     -53603.662      9481.9315     -33241.465     -629.14193      123809.13    
   3007500   302.94727     -53557.204      9499.7353     -33222.033     -468.82887      124270.81    
   3010000   298.79777     -53724.66       9540.8606     -33496.777      1162.5522      123353.99    
   3012500   300.46173     -53664.367      9664.1138     -33253.717      205.38371      123439.61    
   3015000   299.92562     -53569.125      9406.1504     -33435.613      275.73994      124191.53    
   3017500   299.03377     -53614.402      9544.6246     -33374.315     -677.59845      123759.94    
   3020000   298.54508     -53643.979      9430.1852     -33535.81       380.34643      123633.78    
   3022500   298.81226     -53645.744      9596.7846     -33361.419      415.77879      123609.05    
   3025000   297.43569     -53715.799      9602.8159     -33474.678     -626.39446      123316       
   3027500   296.09032     -53762.137      9409.5629     -33762.389     -632.81229      122775.98    
   3030000   301.3838      -53649.344      9505.5677     -33364.26      -257.70287      123419.15    
   3032500   301.52864     -53671.373      9414.1734     -33472.503      806.27688      123382.52    
   3035000   301.75681     -53707.395      9474.1173     -33440.42       333.43655      123122.06    
   3037500   299.17043     -53716.171      9562.7166     -33453.103      540.60733      123215.44    
   3040000   299.20536     -53728.402      9422.2732     -33604.528      442.83494      123286.82    
   3042500   294.45868     -53623.126      9468.2116     -33623.087     -606.54426      124225.21    
   3045000   303.86689     -53723.804      9576.5989     -33278.877      547.72148      123260.53    
   3047500   302.67539     -53757.543      9438.6203     -33493.211      1380.2882      123012.19    
   3050000   299.14252     -53772.583      9565.9136     -33507.317      285.71989      123235.85    
   3052500   293.16194     -53695.023      9407.4754     -33802.101     -156.90767      123127.24    
   3055000   299.33793     -53728.136      9558.8015     -33462.993     -443.95548      123417.2     
   3057500   300.62771     -53746.762      9551.1026     -33443.186      209.29706      123324.88    
   3060000   299.31121     -53738.207      9463.0047     -33569.816      39.349686      123261.26    
   3062500   304.69478     -53673.4        9581.3993     -33194.062      150.17675      123883.03    
   3065000   299.07402     -53761.745      9462.0294     -33602.813      366.0743       123436.48    
   3067500   301.97894     -53696.63       9544.8129     -33351.015      482.58379      123560.53    
   3070000   300.45219     -53695.112      9628.6195     -33320.297      620.08606      123232.39    
   3072500   298.55053     -53683.242      9577.8549     -33427.208     -1150.2623      123223.6     
   3075000   301.67221     -53650.403      9531.445      -33329.126      206.68142      123323.51    
   3077500   300.50458     -53673.492      9593.9435     -33331.479     -150.27639      123547.42    
   3080000   303.08444     -53652.344      9487.5102     -33324.491      1197.5585      123376.97    
   3082500   299.62912     -53693.531      9526.2188     -33450.556     -1019.7075      123332.43    
   3085000   299.61813     -53759.55       9504.8534     -33538.333      25.161679      123126.5     
   3087500   300.97327     -53717.534      9552.3914     -33400.31      -605.9744       122992.66    
   3090000   299.66141     -53679.94       9531.4555     -33430.573     -143.02144      123437.03    
   3092500   298.38713     -53651.731      9611.1545     -33368.242     -174.79733      123455       
   3095000   301.02106     -53688.998      9580.4047     -33342.051     -42.089697      123455.27    
   3097500   296.25889     -53700.917      9607.0975     -33497.604     -273.94463      123079.24    
   3100000   298.06825     -53729.157      9388.3762     -33679.851     -151.1315       123448.31    
   3102500   299.24384     -53757.51       9461.2925     -33593.241     -439.21586      123160.46    
   3105000   299.79108     -53730.276      9492.7744     -33514.952      675.16254      123484.99    
   3107500   302.91765     -53700.363      9561.3935     -33304.593     -363.28802      123385.51    
   3110000   298.23822     -53651.151      9517.9917     -33466.151      7.5268344      123338.87    
   3112500   302.13202     -53752.633      9598.2714     -33348.084     -708.41538      123311.66    
   3115000   299.98394     -53721.482      9512.4165     -33479.618     -125.89756      123865.08    
   3117500   301.83938     -53765.96       9450.4945     -33519.655     -5.652317       123097.68    
   3120000   302.16004     -53769.677      9557.2787     -33405.119     -659.88734      123434       
   3122500   303.29835     -53772.805      9515.0893     -33409.722      808.85555      122754.43    
   3125000   300.61686     -53589.134      9544.0226     -33293.027      466.77738      123747.75    
   3127500   300.22328     -53691.073      9543.9892     -33409.076     -291.97758      123446.93    
   3130000   301.88069     -53672.024      9582.9499     -33291.786     -588.98837      123566.67    
   3132500   302.13457     -53691.369      9676.1642     -33208.836      422.96797      123334.75    
   3135000   299.88599     -53727.949      9491.4857     -33510.519     -4.9908906      123777.59    
   3137500   303.15416     -53752.917      9494.3547     -33415.726      113.0501       123379.55    
   3140000   297.23484     -53729.787      9613.1402     -33485.526      489.22556      123221.68    
   3142500   305.30489     -53740.999      9553.6783     -33267.56       877.9487       122944.56    
   3145000   299.27342     -53734.539      9527.8035     -33502.701     -538.07297      123450.4     
   3147500   303.23025     -53813.646      9493.4244     -33474.664      298.88365      123053.97    
   3150000   297.73287     -53902.203      9524.3105     -33728.958      76.769249      123028.24    
   3152500   300.43692     -53738.419      9517.0425     -33475.728     -645.16854      123459.21    
   3155000   300.00068     -53695.321      9495.4879     -33469.787     -211.95883      123535.14    
   3157500   300.44765     -53703.644      9558.6108     -33399          372.52166      123662.25    
   3160000   297.75228     -53683.549      9474.3226     -33559.598     -37.294546      123424.64    
   3162500   301.25026     -53805.46       9608.9055     -33421.814      1232.3434      123160.29    
   3165000   298.21227     -53635.284      9437.4896     -33531.714     -1702.6096      124003.38    
   3167500   302.15307     -53708.78       9579.9945     -33321.755     -658.76023      123574.04    
   3170000   296.17253     -53726.312      9680.0803     -33453.105     -363.07728      123667.82    
   3172500   297.65297     -53755.987      9534.7802     -33575.131      300.23444      123308.33    
   3175000   299.99036     -53739.022      9445.1243     -33564.221     -18.88757       123514.94    
   3177500   303.73585     -53651.542      9518.3716     -33269.529     -821.02124      123642.35    
   3180000   301.14674     -53714.43       9516.4607     -33426.932      669.60586      123456.7     
   3182500   300.17827     -53730.678      9475.3021     -33518.978      422.93054      123373.99    
   3185000   300.9303      -53774.054      9595.9445     -33414.814     -430.31415      123588.57    
   3187500   300.70448     -53686.328      9428.0242     -33503.085      199.84277      123328.32    
   3190000   301.72852     -53727.26       9524.8648     -33410.55       448.91726      122759.32    
   3192500   298.27384     -53702.328      9621.3369     -33412.708     -857.45915      123456.09    
   3195000   299.85492     -53717.161      9550.163      -33442.165      228.46108      123157.14    
   3197500   297.60001     -53748.241      9484.9423     -33619.117     -606.21625      123163.62    
   3200000   297.60867     -53700.852      9428.7571     -33627.603     -769.19831      123279.92    
   3202500   299.45373     -53718.781      9439.6875     -33568.61       107.16284      123370.38    
   3205000   301.71743     -53674.394      9462.4764     -33420.469     -210.59609      123661.34    
   3207500   301.51589     -53682.565      9473.5712     -33424.753     -1507.8419      123813.8     
   3210000   301.68871     -53764.539      9579.5765     -33394.541      22.665969      123368.95    
   3212500   298.79576     -53719.809      9515.6351     -33517.224     -1184.7083      123778.51    
   3215000   297.65519     -53772.552      9383.3004     -33743.096      119.33809      122975.09    
   3217500   299.85812     -53692.867      9337.041      -33630.879      519.15476      123421.19    
   3220000   300.06614     -53716.818      9558.6333     -33425.797      614.37868      122890.68    
   3222500   299.93188     -53768.526      9507.8042     -33533.137      601.03888      122943.69    
   3225000   301.28783     -53751.431      9609.0485     -33366.3       -1181.0598      123313.83    
   3227500   299.56302     -53724.094      9532.106      -33477.595      55.528481      123600.95    
   3230000   299.24302     -53774.363      9496.0354     -33575.381      331.37448      123071.28    
   3232500   301.60859     -53744.133      9582.6814     -33373.896     -1414.2055      123630.54    
   3235000   304.01673     -53741.66       9584.2588     -33283.714      238.66343      123384.13    
   3237500   299.54871     -53814.364      9552.0187     -33548.465      430.79363      122895.08    
   3240000   301.55207     -53813.034      9473.4252     -33554.074     -627.78999      123372.52    
   3242500   301.11299     -53719.057      9545.1998     -33404.027      479.3105       123412.21    
   3245000   298.00221     -53697.259      9536.1074     -33502.585      292.67316      123345.15    
   3247500   302.31309     -53720.952      9625.5591     -33282.639      309.8037       123665.71    
   3250000   301.67713     -53677.888      9530.2504     -33357.631      719.50223      123727.78    
   3252500   296.98579     -53655.976      9491.9393     -33541.824     -443.38351      123830.66    
   3255000   295.21947     -53731.466      9645.4133     -33527.015      719.07378      123542.2     
   3257500   298.79316     -53709.537      9481.1646     -33541.515      519.91923      123512.77    
   3260000   300.63282     -53795.889      9526.1646     -33517.069     -871.70662      123068.37    
   3262500   296.78505     -53738.649      9646.5654     -33477.05       418.61964      122726.09    
   3265000   298.39928     -53676.452      9442.6525     -33561.031     -1018.7475      123233.62    
   3267500   303.73138     -53830.84       9435.8671     -33531.492     -593.26375      122704.48    
   3270000   297.30286     -53760.36       9618.3125     -33508.493      222.48705      123119.52    
   3272500   301.48722     -53807.54       9544.4371     -33479.888      508.86864      122939.66    
   3275000   300.50721     -53723.705      9603.8341     -33371.708      1345.1145      123004.2     
   3277500   298.25277     -53758.578      9532.3371     -33558.712      364.55056      122904.43    
   3280000   304.40842     -53719.912      9634.4587     -33197.757      451.39666      123016.53    
   3282500   297.6691      -53749.478      9611.3431     -33491.482      174.1589       123321.35    
   3285000   304.40343     -53778.581      9578.6261     -33312.437     -854.56123      123536.78    
   3287500   301.30272     -53728.403      9457.0847     -33494.703      547.24946      123082.03    
   3290000   301.7439      -53823.502      9552.3592     -33478.747      414.2801       122955.15    
   3292500   302.04696     -53766.044      9496.3127     -33466.496      55.629962      123194       
   3295000   297.04472     -53689.888      9766.0549     -33299.512     -143.11787      123389.34    
   3297500   301.80656     -53682.834      9501.6719     -33386.526      943.28388      123287.82    
   3300000   298.16186     -53698.224      9473.2561     -33560.69       444.54387      123270.89    
   3302500   300.85103     -53679.198      9447.9369     -33470.8        341.79259      123259.29    
   3305000   297.86033     -53767.898      9487.1694     -33627.236     -389.96195      123131.74    
   3307500   301.97083     -53686.663      9506.1288     -33380.023      13.616604      123161.5     
   3310000   299.30879     -53617.285      9424.4059     -33487.58      -170.06287      123250.66    
   3312500   305.27798     -53673.313      9384.1986     -33370.316     -1006.399       123740.3     
   3315000   300.06842     -53677.036      9333.5961     -33610.971      774.19275      123487.45    
   3317500   303.34591     -53705.679      9546.6343     -33309.35       338.77975      123386.99    
   3320000   300.64644     -53624.533      9537.8074     -33333.583      1063.1551      123881.76    
   3322500   301.12194     -53650.936      9417.8386     -33462.947      136.70881      123813.8     
   3325000   300.42958     -53651.857      9324.4703     -33582          81.806244      123725.7     
   3327500   300.41978     -53636.016      9543.3723     -33347.607      252.05711      123679.5     
   3330000   300.30049     -53727.25       9512.2045     -33474.276     -220.27576      123208.66    
   3332500   293.10495     -53736.97       9516.9396     -33736.622      485.68813      123478.86    
   3335000   301.33234     -53705.956      9572.4881     -33355.793      596.46677      123581.78    
   3337500   302.47364     -53778.016      9349.6615     -33609.858     -543.60239      123548.75    
   3340000   302.26184     -53683.349      9452.296      -33420.133     -455.73728      123698.06    
   3342500   300.32345     -53633.756      9557.3127     -33334.852     -579.11708      123407.06    
   3345000   300.63935     -53690.067      9443.6313     -33493.547     -451.23339      123432.7     
   3347500   297.45748     -53732.639      9413.5731     -33679.982     -741.86785      123298.68    
   3350000   302.8177      -53730.497      9363.6597     -33536.035     -767.01299      123334.34    
   3352500   300.40506     -53713.097      9406.4816     -33562.105      806.4064       123110.84    
   3355000   297.1931      -53690.518      9390.8308     -33670.059     -648.32355      123352.09    
   3357500   299.03424     -53680.557      9496.162      -33488.915     -19.49439       123380.33    
   3360000   302.39284     -53788.272      9492.2363     -33480.43       123.56241      122639.7     
   3362500   299.64201     -53725.257      9464.1766     -33543.862      282.51045      123555.16    
   3365000   295.21797     -53775.086      9610.6927     -33605.409      904.14528      123129.65    
   3367500   304.30536     -53767.456      9583.8645     -33299.581      435.41866      122912.68    
   3370000   300.33259     -53668.502      9569.49       -33357.095      644.16929      123545.15    
   3372500   302.15218     -53689.898      9441.4236     -33441.476     -8.3158063      123625.03    
   3375000   299.70008     -53673.312      9525.8765     -33428.141      815.49399      123625.22    
   3377500   299.55006     -53699.412      9526.0419     -33459.441      15.806426      123198.44    
   3380000   303.01982     -53680.099      9595.0038     -33247.064     -186.71035      123318.52    
   3382500   304.45246     -53603.6        9577.5057     -33136.822     -569.34281      123917.63    
   3385000   302.35556     -53782.879      9425.793      -33542.814      284.63055      123218.4     
   3387500   299.95661     -53771.461      9627.1044     -33415.886     -257.65284      123284.37    
   3390000   304.09926     -53786.574      9416.1503     -33493.784     -866.28082      123248.33    
   3392500   298.31423     -53724.456      9500.6265     -33554.102     -276.42384      123058.57    
   3395000   300.41769     -53654.703      9609.2592     -33300.482     -606.59159      123316.38    
   3397500   299.11744     -53762.329      9456.2587     -33607.615     -420.41977      123228.39    
   3400000   296.38161     -53654.331      9536.7296     -33516.998      62.33513       123701.32    
   3402500   298.73592     -53696.966      9455.6763     -33556.48      -210.91716      123235.55    
   3405000   300.1533      -53731.652      9457.2685     -33538.879      214.80259      123222.38    
   3407500   299.37825     -53719.05       9506.0187     -33505.247     -370.6244       123434.91    
   3410000   301.95338     -53737.145      9500.6667     -33436.59       413.37099      123072.22    
   3412500   298.9233      -53719.003      9506.0724     -33521.419     -455.09768      123541.87    
   3415000   299.98683     -53715.46       9498.2552     -33487.654     -27.534445      123431.6     
   3417500   302.56397     -53779.688      9502.1304     -33455.831      141.0127       122890.59    
   3420000   300.9941      -53734.828      9523.6361     -33445.614     -678.63084      122985.78    
   3422500   300.93553     -53709.481      9512.8263     -33433.172     -704.9975       123157.63    
   3425000   299.37758     -53735.733      9545.6594     -33482.314      169.22633      123291.9     
   3427500   300.22168     -53824.66       9525.4802     -33561.229      536.38091      123056.92    
   3430000   303.1764      -53765.188      9474.6601     -33446.897     -432.19606      123055.44    
   3432500   300.8951      -53723.317      9413.8714     -33547.409     -816.63204      123150.05    
   3435000   299.48374     -53705.107      9614.7929     -33378.757      528.18022      123162.81    
   3437500   295.39362     -53667.666      9505.023      -33597.376      120.23937      123464.37    
   3440000   301.35411     -53673.019      9529.5094     -33365.056     -760.37893      123712       
   3442500   297.70381     -53668.495      9517.381      -33503.219     -532.2106       123651.7     
   3445000   300.84714     -53740.99       9515.6685     -33465         -586.01601      123317.03    
   3447500   300.17109     -53770.356      9524.5776     -33509.637     -491.09308      123045.83    
   3450000   300.63528     -53776.238      9547.6884     -33475.806     -691.76157      123122.44    
   3452500   297.62534     -53745.676      9551.4693     -33549.119      369.1129       122875.29    
   3455000   299.91925     -53670.306      9500.5914     -33442.581     -504.46782      123696.82    
   3457500   298.77829     -53668.626      9458.0457     -33524.255      169.52505      123899.69    
   3460000   299.05406     -53663.369      9459.2282     -33507.952     -530.53696      123726.67    
   3462500   298.80072     -53769.925      9331.3675     -33751.43      -861.94399      123395.22    
   3465000   299.04353     -53690.514      9500.6868     -33494.015     -251.94167      123488.31    
   3467500   296.5156      -53707.189      9511.5241     -33590.269      121.49947      123587.53    
   3470000   296.37475     -53779.198      9397.1006     -33781.739      477.36553      122947.66    
   3472500   303.78383     -53749.8        9410.8811     -33473.562      218.96381      123275.96    
   3475000   296.71744     -53753.498      9460.7507     -33680.132      359.21053      123257.9     
   3477500   302.45322     -53717.101      9502.577      -33396.759      634.2412       123202.88    
   3480000   298.57062     -53843.921      9449.6472     -33715.376      126.4956       123009.66    
   3482500   297.0677      -53785.959      9528.9392     -33631.877     -473.15826      123244.63    
   3485000   305.59301     -53748.486      9411.9917     -33406.429     -315.06594      123039.9     
   3487500   297.74546     -53740.916      9549.8165     -33541.715      416.49506      123201.58    
   3490000   302.89876     -53803.954      9579.3439     -33390.909      23.775687      122776.26    
   3492500   301.11114     -53829.256      9490.8583     -33568.634      557.37386      123270.18    
   3495000   297.73331     -53726.735      9477.9529     -33599.832      1033.9625      123177.09    
   3497500   301.83864     -53703.951      9555.085      -33353.082      802.29969      123599.42    
   3500000   295.68275     -53700.287      9445.2401     -33679.439      15.313335      123318.47    
   3502500   303.12415     -53737.247      9550.2184     -33345.266      163.52146      123899.23    
   3505000   295.17166     -53649.818      9541.1467     -33551.343      235.21116      123222.75    
   3507500   299.9671      -53697.78       9472.2288     -33496.706     -507.07844      123431.79    
   3510000   304.57295     -53777.489      9451.3012     -33432.607      399.29254      122972.37    
   3512500   299.57515     -53721.746      9614.4275     -33392.492     -196.2731       123329.86    
   3515000   302.91308     -53774.272      9517.284      -33422.775     -488.57247      123339.26    
   3517500   301.60048     -53729.432      9480.2218     -33461.944      107.78045      123296.46    
   3520000   296.48983     -53758.757      9506.0643     -33648.218      798.20608      122973.98    
   3522500   302.63862     -53747.932      9464.9831     -33458.552      740.39323      123339.03    
   3525000   299.58262     -53736.263      9572.9454     -33448.224     -251.57895      123323.2     
   3527500   295.94531     -53685.992      9581.2914     -33519.702      1036.3072      123345.01    
   3530000   302.59893     -53709.708      9635.5446     -33251.186     -1139.0673      123430.65    
   3532500   298.66442     -53788.223      9448.1148     -33657.856     -319.07264      123080.48    
   3535000   296.14038     -53756.097      9350.1373     -33813.983      298.76465      123302.36    
   3537500   300.16339     -53645.361      9512.5718     -33396.924     -511.16657      123759.5     
   3540000   299.72292     -53748.023      9495.2702     -33532.641      66.346198      123050.26    
   3542500   301.13572     -53653.94       9611.8662     -33271.431      379.70704      123519.8     
   3545000   299.95221     -53632.846      9501.4889     -33403.045     -438.30386      123455.5     
   3547500   298.79801     -53709.954      9595.2844     -33427.639     -1045.6831      123197.4     
   3550000   297.36782     -53703.712      9376.942      -33690.893      241.73267      123430.82    
   3552500   300.56042     -53739.281      9411.6346     -33577.58       322.98774      123478.97    
   3555000   303.3639      -53736.272      9620.4398     -33265.494      38.525497      123098.28    
   3557500   304.81532     -53761.652      9414.2702     -33445.132      423.62961      123485.52    
   3560000   299.41975     -53794.993      9580.4298     -33505.295      1198.2686      122917.92    
   3562500   301.31725     -53831.163      9503.9334     -33550.094      1386.7075      122858.49    
   3565000   303.27937     -53761.686      9477.9508     -33436.421      570.40683      123072.78    
   3567500   301.14635     -53736.833      9467.835      -33497.975     -170.50793      123583.53    
   3570000   296.92445     -53766.459      9449.8233     -33696.616      418.93219      123206.8     
   3572500   298.76725     -53738.309      9557.7187     -33494.66      -778.19511      123414.62    
   3575000   297.8514      -53788.345      9451.1083     -33684.063      472.83396      123098.57    
   3577500   296.15403     -53695.224      9474.8272     -33627.933      657.66588      123307.8     
   3580000   300.11415     -53781.735      9476.2373     -33571.393     -150.64375      122862.11    
   3582500   295.09259     -53802.42       9546.7189     -33701.201      292.23086      123025.38    
   3585000   300.24197     -53751.008      9556.5529     -33455.779      290.72246      123268.58    
   3587500   299.14531     -53770.467      9530.6262     -33540.388     -287.24231      123444.15    
   3590000   301.58302     -53709.567      9544.4731     -33378.453      275.04873      123789.88    
   3592500   301.18858     -53816.307      9570.7767     -33472.997      523.64909      123069.5     
   3595000   300.48418     -53762.568      9554.2763     -33460.953     -647.6382       123411.22    
   3597500   305.97335     -53827.182      9577.2917     -33306.221      429.93509      122862.45    
   3600000   299.25271     -53713.397      9658.153      -33351.95       17.703228      123590.5     
   3602500   297.35479     -53739.001      9461.5558     -33642.034      1015.9098      122807.26    
   3605000   294.54348     -53764.001      9500.5377     -33728.603     -787.87145      123434.54    
   3607500   297.21551     -53691.794      9525.6897     -33535.675      491.72148      123424.43    
   3610000   300.89094     -53781.895      9442.7013     -33577.306     -392.47887      123352.58    
   3612500   305.87373     -53748.173      9538.1645     -33269.902      1109.6471      122940.49    
   3615000   301.82098     -53781.497      9592.3372     -33394.007      102.36434      123013.63    
   3617500   295.06145     -53691.224      9486.2342     -33651.604     -622.53472      123528.77    
   3620000   297.02252     -53665.81       9523.7107     -33518.572      721.51031      123463.03    
   3622500   297.98887     -53680.398      9509.7033     -33512.604      570.54886      123301.77    
   3625000   301.27761     -53727.4        9572.3531     -33379.329      1027.1357      123446.57    
   3627500   304.48578     -53735.687      9480.1016     -33365.122     -318.78299      123266.66    
   3630000   300.98583     -53748.846      9608.5363     -33375.028      598.74538      122982.32    
   3632500   298.09382     -53690.205      9471.4478     -33556.913     -808.04814      123275.15    
   3635000   300.34827     -53738.37       9534.8692     -33461.022     -186.73863      123342.7     
   3637500   300.19614     -53661.172      9570.4775     -33353.658     -64.128923      123526.82    
   3640000   302.69759     -53722.616      9527.29       -33368.82       705.14581      123523.59    
   3642500   299.92748     -53720.503      9579.829      -33413.246     -705.94431      123320.16    
   3645000   299.32572     -53825.991      9556.965      -33563.121     -146.51404      123053.5     
   3647500   296.54472     -53821.016      9586.3978     -33628.18       146.45331      122884.84    
   3650000   300.72812     -53813.261      9683.6981     -33373.499      832.93846      122663.37    
   3652500   301.04903     -53755.46       9439.6342     -33548.284     -389.1397       123256.84    
   3655000   299.24932     -53798.177      9600.0898     -33494.915      50.956512      122885.47    
   3657500   304.90328     -53807.138      9531.5772     -33370.164      133.62664      123017.48    
   3660000   299.93484     -53819.081      9500.71       -33590.679      813.24523      122830.68    
   3662500   293.5271      -53706.593      9481.1132     -33726.972     -472.51949      123627.96    
   3665000   298.80442     -53765.194      9534.0748     -33543.859      412.19615      123336.08    
   3667500   299.42377     -53729.089      9474.806      -33544.871      683.21625      123029.58    
   3670000   297.17457     -53774.843      9578.55       -33567.328      154.17788      122845.39    
   3672500   302.07738     -53717.108      9595.3959     -33317.39      -288.10438      123431.52    
   3675000   299.15295     -53754.173      9568.2966     -33486.151      259.54917      123582.55    
   3677500   300.48286     -53790.232      9425.8548     -33617.085     -260.37411      123211       
   3680000   297.20376     -53757.731      9488.7629     -33638.959      312.97611      123043.67    
   3682500   300.52877     -53829.403      9432.4699     -33647.999      269.0441       123161.82    
   3685000   300.32916     -53817.153      9533.1651     -33542.193     -202.93995      123372.84    
   3687500   303.06171     -53820.712      9516.153      -33465.03      -454.86033      123084.11    
   3690000   299.13131     -53711.591      9341.5277     -33671.112      450.24587      123244.81    
   3692500   298.95205     -53724.842      9606.9607     -33425.341      73.505847      123018.23    
   3695000   300.87352     -53714.705      9504.3504     -33449.09      -1381.6434      123295.43    
   3697500   298.46993     -53742.38       9578.7608     -33488.322      39.050182      123304.05    
   3700000   297.39431     -53726.457      9429.6786     -33659.954     -533.76793      123130.93    
   3702500   300.1287      -53757.052      9626.4727     -33395.954     -257.06845      122957.1     
   3705000   297.54949     -53660.556      9639.4044     -33378.776     -119.30973      123301.76    
   3707500   303.54883     -53708.877      9524.5937     -33327.332     -59.0393        123350.44    
   3710000   299.50773     -53727.746      9478.6568     -33536.674      73.096223      123308.01    
   3712500   301.71752     -53698.935      9462.2555     -33445.227     -19.685408      123362.37    
   3715000   298.34765     -53715.287      9682.4455     -33361.918     -484.49075      123039.1     
   3717500   298.75351     -53635.115      9517.8553     -33431.821     -389.33352      123187.29    
   3720000   300.85825     -53739.376      9488.8903     -33489.767     -56.683162      123334.85    
   3722500   298.46535     -53719.487      9491.9675     -33552.387      349.04776      123299.46    
   3725000   299.58046     -53643.918      9501.7403     -33427.161     -732.92479      124095.15    
   3727500   300.11352     -53592.984      9493.8677     -33365.034      172.65552      123906.89    
   3730000   303.43188     -53539.308      9543.6345     -33142.905     -539.94491      123992.55    
   3732500   300.36605     -53669.168      9417.8161     -33508.237      621.42172      123580.79    
   3735000   300.42557     -53738.722      9434.2107     -33559.268     -394.22564      123310.08    
   3737500   296.93586     -53675.619      9459.8277     -33595.364      1852.1285      123333       
   3740000   300.89204     -53651.852      9428.1646     -33461.76      -434.0374       124004.29    
   3742500   302.57884     -53741.093      9546.1906     -33372.644     -373.89816      123893.73    
   3745000   301.2336      -53751.549      9566.0072     -33411.398      148.55345      123211.37    
   3747500   300.19147     -53722.675      9537.9763     -33447.828     -218.06044      123232.57    
   3750000   300.92079     -53646.457      9535.0516     -33348.449      205.18324      123602.87    
   3752500   302.97193     -53767.182      9574.8591     -33356.005      334.37382      123571.86    
   3755000   301.77929     -53739.62       9592.4428     -33353.516     -464.72353      123582.36    
   3757500   301.35724     -53727.774      9609.7528     -33339.455     -465.42807      123316.99    
   3760000   299.19182     -53837.462      9456.0049     -33680.341      41.181682      123112.63    
   3762500   302.07402     -53773.534      9525.4707     -33443.861     -322.56774      123513.08    
   3765000   298.96553     -53739.734      9409.2348     -33637.477      639.39506      123326.49    
   3767500   298.84411     -53681.439      9587.7353     -33405.024      203.84198      123492.04    
   3770000   300.63863     -53698.174      9457.7607     -33487.55      -904.39803      123527.15    
   3772500   296.73889     -53754.624      9441.7809     -33699.461     -271.57923      123596.7     
   3775000   298.33423     -53716.204      9563.4678     -33482.293     -350.85344      123534.94    
   3777500   302.80552     -53735.003      9553.3108     -33351.326     -195.92744      123299.52    
   3780000   303.79274     -53770.021      9570.4216     -33333.923     -79.849618      123041.55    
   3782500   299.53634     -53726.86       9504.3305     -33509.092      303.79311      122910.19    
   3785000   299.93771     -53778.16       9617.0316     -33433.334      450.56683      123439.13    
   3787500   296.13928     -53767.996      9495.2412     -33680.818     -830.81239      123391.8     
   3790000   299.42385     -53813.034      9486.8864     -33616.733      1759.124       122704.57    
   3792500   298.56813     -53693.77       9484.5004     -33530.461      56.110608      123477.2     
   3795000   297.99576     -53770.572      9617.4829     -33494.752     -401.41837      123007.01    
   3797500   300.6834      -53741.197      9509.8538     -33476.878      590.85078      123212.66    
   3800000   301.74651     -53734.565      9565.9165     -33376.159     -269.57387      123289.03    
   3802500   297.64593     -53744.14       9537.3174     -33560.998     -141.18719      123125.36    
   3805000   298.8241      -53731.434      9539.2245     -33504.245      499.52343      122901.89    
   3807500   299.03542     -53706.886      9676.9857     -33334.378     -994.20367      123438.51    
   3810000   299.11804     -53728.316      9638.0693     -33391.77      -1148.2313      123750.96    
   3812500   297.45946     -53706.089      9388.8969     -33678.038      206.78186      123149.95    
   3815000   299.98078     -53674.528      9606.0955     -33339.098      1.3121399      123434.66    
   3817500   301.31344     -53655.586      9477.0175     -33401.569     -166.68789      123693.71    
   3820000   299.75851     -53660.903      9507.7335     -33431.785      598.6873       123358.75    
   3822500   299.56717     -53702.47       9465.2244     -33522.704      5.8997959      123311.66    
   3825000   298.75687     -53685.104      9567.1864     -33432.358      56.804571      123698.15    
   3827500   298.55674     -53777.599      9497.9889     -33601.209     -107.4153       123116.2     
   3830000   301.10754     -53671.268      9522.7542     -33378.879      270.8476       123581.66    
   3832500   293.09835     -53727.623      9446.8251     -33797.626      237.4163       123258.52    
   3835000   299.66321     -53722.694      9557.4503     -33447.267     -16.044904      123100.13    
   3837500   300.87887     -53670.408      9470.2233     -33438.729     -255.9645       123399.36    
   3840000   299.63501     -53776.295      9457.5397     -33601.788      138.23689      123265.6     
   3842500   298.64053     -53820.365      9560.9171     -33578.05      -330.92673      122947.76    
   3845000   301.99606     -53775.024      9417.5109     -33556.098      574.77231      123074.41    
   3847500   298.49407     -53772.448      9583.5262     -33512.762     -674.48124      123055.24    
   3850000   302.15526     -53787.824      9652.7297     -33327.986     -748.33579      123026.42    
   3852500   298.52189     -53714.188      9504.3337     -33532.7       -343.32266      123096.48    
   3855000   302.33197     -53709.093      9636.5781     -33259.086      84.1413        123224.05    
   3857500   305.69189     -53642.535      9513.5194     -33195.414     -11.195567      123636       
   3860000   297.588       -53783.491      9465.1461     -33674.593     -64.467235      123600.01    
   3862500   297.84264     -53742.357      9484.1048     -33605.392      121.3888       123178.39    
   3865000   296.18209     -53736.885      9621.1383     -33522.28      -635.40185      123199.03    
   3867500   298.71653     -53737.857      9522.7864     -33530.955     -77.364969      123283.95    
   3870000   301.41136     -53696.04       9568.0927     -33347.446      341.33901      123392.74    
   3872500   303.95995     -53675.206      9452.9842     -33350.565      328.61338      123177.11    
   3875000   299.60191     -53680.141      9410.159      -33554.198      310.94569      123837.19    
   3877500   300.10784     -53704.685      9523.0351     -33447.771      568.55544      123581.52    
   3880000   297.60558     -53742.309      9681.0415     -33416.886      20.299103      123243.57    
   3882500   301.58861     -53786.03       9522.5555     -33476.634     -77.160111      123338.54    
   3885000   297.12618     -53595.177      9563.7759     -33404.166     -541.16875      123893.1     
   3887500   301.15664     -53679.799      9443.3418     -33465.066      93.467358      123259.18    
   3890000   299.22108     -53757.292      9519.4128     -33535.717      37.281634      123219.26    
   3892500   300.57849     -53706.698      9407.7321     -33548.253     -1032.7137      123581.38    
   3895000   298.33148     -53750.267      9395.0039     -33684.918     -99.268499      123001.6     
   3897500   300.16708     -53756.74       9432.9668     -33587.776      1017.0456      122661.77    
   3900000   300.39507     -53702.628      9489.0696     -33469.407      460.89267      123402.66    
   3902500   301.19149     -53806.482      9526.2129     -33507.631     -69.934331      122994.84    
   3905000   300.11854     -53774.318      9510.7099     -33529.347     -305.27779      123052.42    
   3907500   298.25121     -53730.352      9408.9685     -33653.911     -561.57253      123468.85    
   3910000   305.35906     -53789.786      9425.3675     -33442.721      543.12353      122932.9     
   3912500   302.14035     -53782.081      9486.1441     -33489.362     -494.07609      123295.9     
   3915000   300.51714     -53729.948      9478.2423     -33503.188      499.90488      123295.57    
   3917500   299.6524      -53827.83       9512.138      -33598.103     -145.36108      122842.45    
   3920000   300.72704     -53705.189      9525.533      -33423.63       685.07359      123452.35    
   3922500   299.57784     -53611.885      9532.9879     -33363.975     -749.43019      123879.03    
   3925000   301.16849     -53725.866      9565.1669     -33388.885      880.5069       123109.67    
   3927500   300.22415     -53704.802      9565.2064     -33401.557      377.29665      123644.19    
   3930000   300.22575     -53593.144      9585.1137     -33269.934     -772.67065      124178.5     
   3932500   302.23949     -53671.671      9532.2883     -33329.261      731.31358      123521.12    
   3935000   302.28913     -53651.392      9432.1742     -33407.321      649.78997      123503.78    
   3937500   302.59702     -53552          9579.6797     -33149.411     -458.511        124189.78    
   3940000   299.10634     -53682.599      9502.5986     -33481.942      165.57952      123595.27    
   3942500   297.71564     -53617.704      9580.9016     -33388.485      872.58845      123823.39    
   3945000   297.64607     -53700.498      9547.6377     -33507.031      723.00969      123552.33    
   3947500   297.11924     -53676.857      9516.7946     -33533.075      417.84812      123278.48    
   3950000   296.99111     -53599.973      9512.42       -33465.149      362.91133      123977.05    
   3952500   296.35171     -53696.284      9469.9319     -33626.817      252.83407      123393.82    
   3955000   304.30116     -53713.39       9518.8966     -33310.633     -230.10029      123679.93    
   3957500   299.66031     -53669.583      9657.571      -33294.139     -14.368797      123396.96    
   3960000   297.06879     -53696.745      9488.1915     -33583.372      455.22861      123169.81    
   3962500   300.96011     -53706.973      9613.6283     -33328.983     -25.09768       123090.51    
   3965000   299.26536     -53746.71       9460.2794     -33582.684      510.21457      123306.61    
   3967500   299.05088     -53766.983      9406.2964     -33664.612      527.42113      122880.72    
   3970000   304.81213     -53716.363      9507.2514     -33306.976     -348.89851      123510.9     
   3972500   300.44505     -53770.121      9472.8309     -33551.35       19.451926      123158.12    
   3975000   297.10235     -53783.465      9576.9712     -33580.111      528.95509      123348.4     
   3977500   302.54544     -53765.397      9515.4052     -33428.928      538.5723       123363.88    
   3980000   300.84885     -53742.712      9636.9433     -33345.387     -653.97608      123171.63    
   3982500   299.68901     -53827.672      9498.3294     -33610.443     -74.927679      122738.02    
   3985000   300.92471     -53707.496      9641.0495     -33303.351     -24.893143      123145.49    
   3987500   301.59112     -53696.292      9573.2584     -33336.103     -1355.9939      123403.89    
   3990000   297.16171     -53710.037      9499.8309     -33581.7       -1070.2324      123226.72    
   3992500   297.80051     -53749.678      9506.4725     -33591.852     -349.49557      123104.01    
   3995000   298.75546     -53773.429      9528.7557     -33559.164      238.83882      122894.55    
   3997500   298.86831     -53726.113      9581.7602     -33454.807      298.59524      123259.3     
   4000000   301.24974     -53723.629      9600.8925     -33348.016      282.3616       123154.21    
Loop time of 32084.8 on 16 procs for 4000000 steps with 12000 atoms

Performance: 5.386 ns/day, 4.456 hours/ns, 124.669 timesteps/s, 1.496 Matom-step/s
100.0% CPU use with 16 MPI tasks x 1 OpenMP threads

MPI task timing breakdown:
Section |  min time  |  avg time  |  max time  |%varavg| %total
---------------------------------------------------------------
Pair    | 23201      | 24690      | 26177      | 526.5 | 76.95
Bond    | 711.01     | 748.13     | 775.92     |  62.2 |  2.33
Kspace  | 1954.8     | 3459.6     | 4964.9     |1421.0 | 10.78
Neigh   | 1022.9     | 1023.2     | 1023.8     |   0.8 |  3.19
Comm    | 1742.8     | 1756.2     | 1770.4     |  18.4 |  5.47
Output  | 0.075823   | 0.078864   | 0.11396    |   3.2 |  0.00
Modify  | 265.61     | 319.16     | 347.2      | 139.9 |  0.99
Other   |            | 88.14      |            |       |  0.27

Nlocal:            750 ave         765 max         729 min
Histogram: 1 0 0 1 5 1 2 3 2 1
Nghost:        10274.8 ave       10312 max       10228 min
Histogram: 1 1 2 1 2 1 2 3 0 3
Neighs:         419890 ave      449303 max      398297 min
Histogram: 2 0 2 4 4 1 1 1 0 1

Total # of neighbors = 6718245
Ave neighs/atom = 559.85375
Ave special neighs/atom = 8.1666667
Neighbor list builds = 90879
Dangerous builds = 0


write_data   system_equilibrated_aftercooling_stable_2.data
System init for write_data ...
PPPM initialization ...
  using 12-bit tables for long-range coulomb (src/kspace.cpp:342)
  G vector (1/distance) = 0.19340304
  grid = 15 15 15
  stencil order = 5
  estimated absolute RMS force accuracy = 0.028021456
  estimated relative force accuracy = 8.4385781e-05
  using double precision FFTW3
  3d grid and FFT values/proc = 1690 256
Generated 0 of 2346 mixed pair_coeff terms from geometric mixing rule
WARNING: Not all mixed pair coeffs generated from mixing. Use write_data with 'pair ij' option to store all pair coeffs. (src/write_data.cpp:326)


Total wall time: 8:54:45
