LAMMPS (2 Aug 2023)
OMP_NUM_THREADS environment is not set. Defaulting to 1 thread. (src/comm.cpp:98)
  using 1 OpenMP thread(s) per MPI task


# ------------------------------- Initialization Section --------------------

include         system.in.init
units real
atom_style      full
bond_style      harmonic
angle_style     harmonic
dihedral_style  harmonic
improper_style  harmonic
#pair_style      lj/cut/coul/cut ${cutoff}  # for non-period sims
pair_style      lj/cut/coul/long   12
kspace_style    pppm 0.0001
special_bonds lj 0.0 0.0 0.5 coul 0.0 0.0 1.0 angle yes dihedral yes

# ------------------------------- Atom Definition Section -------------------

read_data       system_equilibrated_nvt_modifiedvolume.data
Reading data file ...
  orthogonal box = (0.12366332 0.12366332 0.12366332) to (50.39 50.39 50.39)
  2 by 2 by 2 MPI processor grid
  reading atoms ...
  12000 atoms
  reading velocities ...
  12000 velocities
  scanning bonds ...
  3 = max bonds/atom
  scanning angles ...
  6 = max angles/atom
  scanning dihedrals ...
  10 = max dihedrals/atom
  scanning impropers ...
  2 = max impropers/atom
  reading bonds ...
  11500 bonds
  reading angles ...
  19500 angles
  reading dihedrals ...
  20500 dihedrals
  reading impropers ...
  2500 impropers
Finding 1-2 1-3 1-4 neighbors ...
  special bond factors lj:    0        0        0.5     
  special bond factors coul:  0        0        1       
     4 = max # of 1-2 neighbors
     7 = max # of 1-3 neighbors
    14 = max # of 1-4 neighbors
  39000 = # of 1-3 neighbors before angle trim
  39000 = # of 1-3 neighbors after angle trim
  56500 = # of 1-4 neighbors before dihedral trim
  41000 = # of 1-4 neighbors after dihedral trim
    15 = max # of special neighbors
  special bonds CPU = 0.003 seconds
  read_data CPU = 0.368 seconds


# ------------------------------- Settings Section --------------------------

include         system.in.settings
#     atom_id      mass
mass 1            15.999400000
mass 2           15.999400000
mass 3           15.999400000
mass 4           15.999400000
mass 5           15.999400000
mass 6            14.006700000
mass 7           14.006700000
mass 8           14.006700000
mass 9           14.006700000
mass 10           14.006700000
mass 11           14.006700000
mass 12            12.011000000
mass 13          12.011000000
mass 14          13.019000000
mass 15          14.027000000
mass 16          15.035000000
mass 17          16.043000000
mass 18         14.027000000
mass 19          12.011000000
mass 20            1.008000000
mass 21             1.008000000
mass 22           1.000000000
mass 23            32.060000000
mass 24         63.546000000
mass 25         63.546000000
mass 26           55.847000000
mass 27         65.370000000
mass 28         24.305000000
mass 29         40.080000000
mass 30           39.948000000
mass 31            18.998400000
mass 32           35.453000000
mass 33           79.904000000
mass 34         12.011000000
mass 35         15.999400000
mass 36          22.989800000
mass 37          35.453000000
mass 38         12.011000000
mass 39        35.453000000
mass 40          1.008000000
mass 41        32.060000000
mass 42        12.011000000
mass 43        15.999400000
mass 44         12.011000000
mass 45        35.453000000
mass 46         18.998400000
mass 47         12.011000000
mass 48        13.019000000
mass 49         15.999400000
mass 50        12.011000000
mass 51        15.999400000
mass 52        14.006700000
mass 53         15.035000000
mass 54            126.904470000
mass 55        35.453000000
mass 56            10.811000000
mass 57           78.960000000
mass 58          1.008000000
mass 59        35.453000000
mass 60        79.904000000
mass 61        15.999400000
mass 62         14.006700000
mass 63         12.011000000
mass 64         12.011000000
mass 65         14.006700000
mass 66         14.006700000
mass 67         15.999400000
mass 68           28.080000000
mass 69            30.973800000

#           atom_i       atom_j       epsilon                  sigma
pair_coeff 1      1      3.057142739336137782E-01 2.760065475311210825E+00
pair_coeff 1      2     3.550276087952778381E-01 2.692123523613648928E+00
pair_coeff 2     2     4.122954462841457168E-01 2.625854035428913935E+00
pair_coeff 1      3     2.204919358198741963E-01 2.914561468303898728E+00
pair_coeff 2     3     1.353372555548385814E-01 3.161567388722811067E+00
pair_coeff 3     3     2.030610329881481768E-01 2.954841833242532800E+00
pair_coeff 1      4     2.779220672123761116E-01 2.804259278747785356E+00
pair_coeff 2     4     3.227523716320707670E-01 2.735229449503375765E+00
pair_coeff 3     4     2.030610329881481768E-01 2.954841833242532800E+00
pair_coeff 4     4     2.526564247385237327E-01 2.849160707521389835E+00
pair_coeff 1      5     1.928839685607480758E-01 3.016736863519489109E+00
pair_coeff 2     5     1.183915722290306144E-01 3.272402037762298210E+00
pair_coeff 3     5     1.776356026680076250E-01 3.058429331874637391E+00
pair_coeff 4     5     1.776356026680076250E-01 3.058429331874637391E+00
pair_coeff 5     5     1.553937103090970162E-01 3.165648283720967182E+00
pair_coeff 1      6      1.694765154967038112E-01 3.064144913095461664E+00
pair_coeff 2     6      9.205677104655286824E-02 3.392227199027124662E+00
pair_coeff 3     6      1.381226695164660401E-01 3.170419479686534814E+00
pair_coeff 4     6      1.381226695164660401E-01 3.170419479686534814E+00
pair_coeff 5     6      1.208282223360083590E-01 3.281564455306036798E+00
pair_coeff 6      6      1.529146624006174071E-01 3.136473222385702364E+00
pair_coeff 1      7     1.295153862773237297E-01 3.204601223054668324E+00
pair_coeff 2     7     7.949613606375653674E-02 3.476187697824344891E+00
pair_coeff 3     7     1.192765986091082336E-01 3.248890049401691016E+00
pair_coeff 4     7     1.192765986091082336E-01 3.248890049401691016E+00
pair_coeff 5     7     1.043418826661619003E-01 3.362785957386363656E+00
pair_coeff 6      7     8.113226830524199185E-02 3.485920696025768706E+00
pair_coeff 7     7     7.006222102981565780E-02 3.572200188298519929E+00
pair_coeff 1      8     9.498357859321329699E-02 3.374577969603924643E+00
pair_coeff 2     8     3.498417334104661491E-02 3.985801065571819457E+00
pair_coeff 3     8     8.747468933197311003E-02 3.421215940224123120E+00
pair_coeff 4     8     8.747468933197311003E-02 3.421215940224123120E+00
pair_coeff 5     8     7.652191525386708992E-02 3.541153054130216749E+00
pair_coeff 6      8     1.529146624006174071E-01 3.136473222385702364E+00
pair_coeff 7     8     5.138200694820247577E-02 3.761674922833770918E+00
pair_coeff 8     8     1.529146624006174071E-01 3.136473222385702364E+00
pair_coeff 1      9     1.582887664986303011E-01 3.099220950402574282E+00
pair_coeff 2     9     9.715714619416199183E-02 3.361876561464794300E+00
pair_coeff 3     9     1.457753106303604218E-01 3.142053380689358466E+00
pair_coeff 4     9     1.457753106303604218E-01 3.142053380689358466E+00
pair_coeff 5     9     1.275226702872701012E-01 3.252203929734818200E+00
pair_coeff 6      9     9.915676463161025855E-02 3.371289499249087385E+00
pair_coeff 7     9     8.562737496854166963E-02 3.454731772227725983E+00
pair_coeff 8     9     6.279712962164887835E-02 3.637975809775669589E+00
pair_coeff 9     9     1.046505125905587974E-01 3.341126193637144581E+00
pair_coeff 1      10     1.356655582513865699E-01 3.179918240687398701E+00
pair_coeff 2     10     4.996808371058240883E-02 3.755883439744826191E+00
pair_coeff 3     10     1.249405711687586185E-01 3.223865938686866883E+00
pair_coeff 4     10     1.249405711687586185E-01 3.223865938686866883E+00
pair_coeff 5     10     1.092966648039405131E-01 3.336884579737899870E+00
pair_coeff 6      10     1.529146624006174071E-01 3.136473222385702364E+00
pair_coeff 7     10     7.338919800609181032E-02 3.544685827501989461E+00
pair_coeff 8     10     1.529146624006174071E-01 3.136473222385702364E+00
pair_coeff 9     10     8.969347936648916497E-02 3.428122195097171421E+00
pair_coeff 10     10     1.529146624006174071E-01 3.136473222385702364E+00
pair_coeff 1      11     1.468798483487794293E-01 3.138102939733744545E+00
pair_coeff 2     11     5.409850998504587422E-02 3.706494309430008460E+00
pair_coeff 3     11     1.352683199952084137E-01 3.181472734127216206E+00
pair_coeff 4     11     1.352683199952084137E-01 3.181472734127216206E+00
pair_coeff 5     11     1.183312681445888304E-01 3.293005202223091565E+00
pair_coeff 6      11     1.529146624006174071E-01 3.136473222385702364E+00
pair_coeff 7     11     7.945564380901472268E-02 3.498073904350435193E+00
pair_coeff 8     11     1.529146624006174071E-01 3.136473222385702364E+00
pair_coeff 9     11     9.710765810444493829E-02 3.383043060841536942E+00
pair_coeff 10     11     1.529146624006174071E-01 3.136473222385702364E+00
pair_coeff 11     11     1.529146624006174071E-01 3.136473222385702364E+00
pair_coeff 1      12      1.423703976828447626E-01 3.143928959384971744E+00
pair_coeff 2     12      1.653354984123153737E-01 3.066537799135407028E+00
pair_coeff 3     12      1.294276342571315797E-01 3.194269134171567437E+00
pair_coeff 4     12      1.294276342571315797E-01 3.194269134171567437E+00
pair_coeff 5     12      1.015029251390483361E-01 3.367009660356621747E+00
pair_coeff 6      12      1.006900148654086141E-01 3.351458328501519368E+00
pair_coeff 7     12      1.006900148654086141E-01 3.351458328501519368E+00
pair_coeff 8     12      1.006900148654086141E-01 3.351458328501519368E+00
pair_coeff 9     12      1.006900148654086141E-01 3.351458328501519368E+00
pair_coeff 10     12      1.006900148654086141E-01 3.351458328501519368E+00
pair_coeff 11     12      1.006900148654086141E-01 3.351458328501519368E+00
pair_coeff 12      12      6.630154972997068241E-02 3.581179283634555510E+00
pair_coeff 1      13    2.260833879260638890E-02 4.280821861878790990E+00
pair_coeff 2     13    2.625518382604388745E-02 4.175444871815595427E+00
pair_coeff 3     13    2.055303526600580841E-02 4.349365815492619802E+00
pair_coeff 4     13    2.055303526600580841E-02 4.349365815492619802E+00
pair_coeff 5     13    1.611860721985387823E-02 4.584571963747981371E+00
pair_coeff 6      13    1.598951752723829639E-02 4.563397031920107594E+00
pair_coeff 7     13    1.598951752723829639E-02 4.563397031920107594E+00
pair_coeff 8     13    1.598951752723829639E-02 4.563397031920107594E+00
pair_coeff 9     13    1.598951752723829639E-02 4.563397031920107594E+00
pair_coeff 10     13    1.598951752723829639E-02 4.563397031920107594E+00
pair_coeff 11     13    1.598951752723829639E-02 4.563397031920107594E+00
pair_coeff 12      13    1.052864867392752299E-02 4.876188605638604123E+00
pair_coeff 13    13    1.671943466637953492E-03 6.639493148644640463E+00
pair_coeff 1      14    8.326657659937299061E-02 3.721998163273249283E+00
pair_coeff 2     14    9.669791731433396986E-02 3.630377213810442427E+00
pair_coeff 3     14    7.569688781761180207E-02 3.781594305716371451E+00
pair_coeff 4     14    7.569688781761180207E-02 3.781594305716371451E+00
pair_coeff 5     14    5.936487660854102705E-02 3.986096356968000354E+00
pair_coeff 6      14    5.888943890049144064E-02 3.967685626525647269E+00
pair_coeff 7     14    5.888943890049144064E-02 3.967685626525647269E+00
pair_coeff 8     14    5.888943890049144064E-02 3.967685626525647269E+00
pair_coeff 9     14    5.888943890049144064E-02 3.967685626525647269E+00
pair_coeff 10     14    5.888943890049144064E-02 3.967685626525647269E+00
pair_coeff 11     14    5.888943890049144064E-02 3.967685626525647269E+00
pair_coeff 12      14    3.877704325548127218E-02 4.239645007324696735E+00
pair_coeff 13    14    6.157772581688245907E-03 5.772765628111153013E+00
pair_coeff 14    14    2.267909407489697785E-02 5.019181773522026546E+00
pair_coeff 1      15    1.731972553779473067E-01 3.351793382524915543E+00
pair_coeff 2     15    2.011348918568659772E-01 3.269285418082499728E+00
pair_coeff 3     15    1.574520503435884455E-01 3.405461854969619839E+00
pair_coeff 4     15    1.574520503435884455E-01 3.405461854969619839E+00
pair_coeff 5     15    1.234809225305322361E-01 3.589623316644059425E+00
pair_coeff 6      15    1.224919962470180784E-01 3.573043790873992709E+00
pair_coeff 7     15    1.224919962470180784E-01 3.573043790873992709E+00
pair_coeff 8     15    1.224919962470180784E-01 3.573043790873992709E+00
pair_coeff 9     15    1.224919962470180784E-01 3.573043790873992709E+00
pair_coeff 10     15    1.224919962470180784E-01 3.573043790873992709E+00
pair_coeff 11     15    1.224919962470180784E-01 3.573043790873992709E+00
pair_coeff 12      15    8.065754277175206377E-02 3.817953007077415251E+00
pair_coeff 13    15    1.280837226587758920E-02 5.198583336794016851E+00
pair_coeff 14    15    4.717327178141728083E-02 4.519953937695086132E+00
pair_coeff 15    15    9.812197803026967424E-02 4.070381293353582564E+00
pair_coeff 1      16    2.517150719017874350E-01 3.216286733597559344E+00
pair_coeff 2     16    2.923180488930291476E-01 3.137114409660223480E+00
pair_coeff 3     16    2.288318835470794788E-01 3.267785491497223305E+00
pair_coeff 4     16    2.288318835470794788E-01 3.267785491497223305E+00
pair_coeff 5     16    1.794601723072659361E-01 3.444501654585188533E+00
pair_coeff 6      16    1.780229229119614787E-01 3.428592407594721170E+00
pair_coeff 7     16    1.780229229119614787E-01 3.428592407594721170E+00
pair_coeff 8     16    1.780229229119614787E-01 3.428592407594721170E+00
pair_coeff 9     16    1.780229229119614787E-01 3.428592407594721170E+00
pair_coeff 10     16    1.780229229119614787E-01 3.428592407594721170E+00
pair_coeff 11     16    1.780229229119614787E-01 3.428592407594721170E+00
pair_coeff 12      16    1.172230999498745652E-01 3.663600408719620116E+00
pair_coeff 13    16    1.861496210673063006E-02 4.988414472922134912E+00
pair_coeff 14    16    6.855895881485152277E-02 4.337220773235620719E+00
pair_coeff 15    16    1.426049200441300291E-01 3.905823498176049124E+00
pair_coeff 16    16    2.072539060975635561E-01 3.747918462531858008E+00
pair_coeff 1      17    3.038575184606040480E-01 3.199953592715625295E+00
pair_coeff 2     17    3.528713488103634721E-01 3.121183326439165739E+00
pair_coeff 3     17    2.762341076914582305E-01 3.251190826523163935E+00
pair_coeff 4     17    2.762341076914582305E-01 3.251190826523163935E+00
pair_coeff 5     17    2.166351113098009262E-01 3.427009578955020341E+00
pair_coeff 6      17    2.149001375898457467E-01 3.411181123260212722E+00
pair_coeff 7     17    2.149001375898457467E-01 3.411181123260212722E+00
pair_coeff 8     17    2.149001375898457467E-01 3.411181123260212722E+00
pair_coeff 9     17    2.149001375898457467E-01 3.411181123260212722E+00
pair_coeff 10     17    2.149001375898457467E-01 3.411181123260212722E+00
pair_coeff 11     17    2.149001375898457467E-01 3.411181123260212722E+00
pair_coeff 12      17    1.415057111515590771E-01 3.644995692608442361E+00
pair_coeff 13    17    2.247102705950117241E-02 4.963082006288297876E+00
pair_coeff 14    17    8.276085709262456791E-02 4.315195237643504100E+00
pair_coeff 15    17    1.721453419435647891E-01 3.885988710192354478E+00
pair_coeff 16    17    2.501862805523388245E-01 3.728885557404626905E+00
pair_coeff 17    17    3.020120399909287934E-01 3.709949306321822071E+00
pair_coeff 1      18   1.871351497334000635E-01 3.303836737441132154E+00
pair_coeff 2     18   2.173210425425619319E-01 3.222509276900889397E+00
pair_coeff 3     18   1.701228633940000401E-01 3.356737334425898833E+00
pair_coeff 4     18   1.701228633940000401E-01 3.356737334425898833E+00
pair_coeff 5     18   1.334179394271841901E-01 3.538263858666045536E+00
pair_coeff 6      18   1.323494301847202848E-01 3.521921548721142159E+00
pair_coeff 7     18   1.323494301847202848E-01 3.521921548721142159E+00
pair_coeff 8     18   1.323494301847202848E-01 3.521921548721142159E+00
pair_coeff 9     18   1.323494301847202848E-01 3.521921548721142159E+00
pair_coeff 10     18   1.323494301847202848E-01 3.521921548721142159E+00
pair_coeff 11     18   1.323494301847202848E-01 3.521921548721142159E+00
pair_coeff 12      18   8.714838644978782634E-02 3.763326663382849269E+00
pair_coeff 13    18   1.383911457826323375E-02 5.124203269895830637E+00
pair_coeff 14    18   5.096949867344095775E-02 4.455283535302380749E+00
pair_coeff 15    18   1.060182565293115581E-01 4.012143267090165999E+00
pair_coeff 16    18   1.540809235512614617E-01 3.849939924851243589E+00
pair_coeff 17    18   1.859985845053877540E-01 3.830388928193292131E+00
pair_coeff 18   18   1.145499809843573136E-01 3.954738496352121491E+00
pair_coeff 1      19    1.916455257379301724E-01 3.213399033460031529E+00
pair_coeff 2     19    2.225589661339335279E-01 3.134297793337560201E+00
pair_coeff 3     19    1.742232052163001366E-01 3.264851553886924496E+00
pair_coeff 4     19    1.742232052163001366E-01 3.264851553886924496E+00
pair_coeff 5     19    1.366336104191038237E-01 3.441409054725308003E+00
pair_coeff 6      19    1.355393477120732659E-01 3.425514091640016634E+00
pair_coeff 7     19    1.355393477120732659E-01 3.425514091640016634E+00
pair_coeff 8     19    1.355393477120732659E-01 3.425514091640016634E+00
pair_coeff 9     19    1.355393477120732659E-01 3.425514091640016634E+00
pair_coeff 10     19    1.355393477120732659E-01 3.425514091640016634E+00
pair_coeff 11     19    1.355393477120732659E-01 3.425514091640016634E+00
pair_coeff 12      19    8.924885764206048899E-02 3.660311093966183371E+00
pair_coeff 13    19    1.417266821800791839E-02 4.983935691534572499E+00
pair_coeff 14    19    5.219797768503835894E-02 4.333326657424202644E+00
pair_coeff 15    19    1.085735338300921060E-01 3.902316706653073286E+00
pair_coeff 16    19    1.577946187139902257E-01 3.744553443938634096E+00
pair_coeff 17    19    1.904815667437584348E-01 3.725537627251366946E+00
pair_coeff 18   19    1.173108919424925706E-01 3.846483307649072980E+00
pair_coeff 19    19    1.201383470349284138E-01 3.741191446582464053E+00
pair_coeff 1      20     9.300420140216696108E-02 2.559445618447809156E+00
pair_coeff 2     20     1.080062726770026210E-01 2.496442138227286112E+00
pair_coeff 3     20     8.454927400196994569E-02 2.600427123263571172E+00
pair_coeff 4     20     8.454927400196994569E-02 2.600427123263571172E+00
pair_coeff 5     20     6.630731279946860957E-02 2.741053705029336207E+00
pair_coeff 6      20     6.577627494299018163E-02 2.728393499060382865E+00
pair_coeff 7     20     6.577627494299018163E-02 2.728393499060382865E+00
pair_coeff 8     20     6.577627494299018163E-02 2.728393499060382865E+00
pair_coeff 9     20     6.577627494299018163E-02 2.728393499060382865E+00
pair_coeff 10     20     6.577627494299018163E-02 2.728393499060382865E+00
pair_coeff 11     20     6.577627494299018163E-02 2.728393499060382865E+00
pair_coeff 12      20     4.331183156556572822E-02 2.915407359639444529E+00
pair_coeff 13    20     6.877894405717501110E-03 3.969663348839890027E+00
pair_coeff 14    20     2.533130481764387168E-02 3.451458661424102736E+00
pair_coeff 15    20     5.268995854924014149E-02 3.108162818448523712E+00
pair_coeff 16    20     7.657659860592054557E-02 2.982505691119483604E+00
pair_coeff 17    20     9.243934043658488808E-02 2.967359751198966222E+00
pair_coeff 18   20     5.693013587912872792E-02 3.063691980262590153E+00
pair_coeff 19    20     5.830227959007599353E-02 2.979827888172235539E+00
pair_coeff 20     20     2.829367882355780447E-02 2.373408142809749322E+00
pair_coeff 1      21      0.000000000000000000E+00 0.000000000000000000E+00
pair_coeff 2     21      0.000000000000000000E+00 0.000000000000000000E+00
pair_coeff 3     21      0.000000000000000000E+00 0.000000000000000000E+00
pair_coeff 4     21      0.000000000000000000E+00 0.000000000000000000E+00
pair_coeff 5     21      0.000000000000000000E+00 0.000000000000000000E+00
pair_coeff 6      21      0.000000000000000000E+00 0.000000000000000000E+00
pair_coeff 7     21      0.000000000000000000E+00 0.000000000000000000E+00
pair_coeff 8     21      0.000000000000000000E+00 0.000000000000000000E+00
pair_coeff 9     21      0.000000000000000000E+00 0.000000000000000000E+00
pair_coeff 10     21      0.000000000000000000E+00 0.000000000000000000E+00
pair_coeff 11     21      0.000000000000000000E+00 0.000000000000000000E+00
pair_coeff 12      21      0.000000000000000000E+00 0.000000000000000000E+00
pair_coeff 13    21      0.000000000000000000E+00 0.000000000000000000E+00
pair_coeff 14    21      0.000000000000000000E+00 0.000000000000000000E+00
pair_coeff 15    21      0.000000000000000000E+00 0.000000000000000000E+00
pair_coeff 16    21      0.000000000000000000E+00 0.000000000000000000E+00
pair_coeff 17    21      0.000000000000000000E+00 0.000000000000000000E+00
pair_coeff 18   21      0.000000000000000000E+00 0.000000000000000000E+00
pair_coeff 19    21      0.000000000000000000E+00 0.000000000000000000E+00
pair_coeff 20     21      0.000000000000000000E+00 0.000000000000000000E+00
pair_coeff 21      21      0.000000000000000000E+00 0.000000000000000000E+00
pair_coeff 1      22    0.000000000000000000E+00 0.000000000000000000E+00
pair_coeff 2     22    0.000000000000000000E+00 0.000000000000000000E+00
pair_coeff 3     22    0.000000000000000000E+00 0.000000000000000000E+00
pair_coeff 4     22    0.000000000000000000E+00 0.000000000000000000E+00
pair_coeff 5     22    0.000000000000000000E+00 0.000000000000000000E+00
pair_coeff 6      22    0.000000000000000000E+00 0.000000000000000000E+00
pair_coeff 7     22    0.000000000000000000E+00 0.000000000000000000E+00
pair_coeff 8     22    0.000000000000000000E+00 0.000000000000000000E+00
pair_coeff 9     22    0.000000000000000000E+00 0.000000000000000000E+00
pair_coeff 10     22    0.000000000000000000E+00 0.000000000000000000E+00
pair_coeff 11     22    0.000000000000000000E+00 0.000000000000000000E+00
pair_coeff 12      22    0.000000000000000000E+00 0.000000000000000000E+00
pair_coeff 13    22    0.000000000000000000E+00 0.000000000000000000E+00
pair_coeff 14    22    0.000000000000000000E+00 0.000000000000000000E+00
pair_coeff 15    22    0.000000000000000000E+00 0.000000000000000000E+00
pair_coeff 16    22    0.000000000000000000E+00 0.000000000000000000E+00
pair_coeff 17    22    0.000000000000000000E+00 0.000000000000000000E+00
pair_coeff 18   22    0.000000000000000000E+00 0.000000000000000000E+00
pair_coeff 19    22    0.000000000000000000E+00 0.000000000000000000E+00
pair_coeff 20     22    0.000000000000000000E+00 0.000000000000000000E+00
pair_coeff 21      22    0.000000000000000000E+00 0.000000000000000000E+00
pair_coeff 22    22    0.000000000000000000E+00 0.000000000000000000E+00
pair_coeff 1      23      3.731714874568097806E-01 3.021498329079459921E+00
pair_coeff 2     23      4.333660288663451210E-01 2.947120929208018492E+00
pair_coeff 3     23      3.392468067789179420E-01 3.069878160802191225E+00
pair_coeff 4     23      3.392468067789179420E-01 3.069878160802191225E+00
pair_coeff 5     23      2.660524812168876263E-01 3.235891839220214727E+00
pair_coeff 6      23      2.639217367579247409E-01 3.220946106087509531E+00
pair_coeff 7     23      2.639217367579247409E-01 3.220946106087509531E+00
pair_coeff 8     23      2.639217367579247409E-01 3.220946106087509531E+00
pair_coeff 9     23      2.639217367579247409E-01 3.220946106087509531E+00
pair_coeff 10     23      2.639217367579247409E-01 3.220946106087509531E+00
pair_coeff 11     23      2.639217367579247409E-01 3.220946106087509531E+00
pair_coeff 12      23      1.737850588051431666E-01 3.441721286142719993E+00
pair_coeff 13    23      2.759696924716207450E-02 4.686300458613273712E+00
pair_coeff 14    23      1.016397168676915763E-01 4.074545090238809841E+00
pair_coeff 15    23      2.114139996840987690E-01 3.669274586167817986E+00
pair_coeff 16    23      3.072571214561132247E-01 3.520932774360979955E+00
pair_coeff 17    23      3.709050306349177539E-01 3.503052561617904459E+00
pair_coeff 18   23      2.284273523866607036E-01 3.616775497184223198E+00
pair_coeff 19    23      2.339329629063890137E-01 3.517771551839822930E+00
pair_coeff 20     23      1.135259918695059600E-01 2.801875799210098883E+00
pair_coeff 21      23      0.000000000000000000E+00 0.000000000000000000E+00
pair_coeff 22    23      0.000000000000000000E+00 0.000000000000000000E+00
pair_coeff 23      23      4.555134350088204109E-01 3.307694050845144673E+00
pair_coeff 1      24   2.223093289799977224E-01 2.528643669394098126E+00
pair_coeff 2     24   8.188055467646591923E-02 2.986646248124879222E+00
pair_coeff 3     24   2.047347528503646874E-01 2.563590501331129090E+00
pair_coeff 4     24   2.047347528503646874E-01 2.563590501331129090E+00
pair_coeff 5     24   1.790997547608397245E-01 2.653461953861128819E+00
pair_coeff 6      24   5.583840364210079787E-01 2.182297559899140094E+00
pair_coeff 7     24   5.583840364210079787E-01 2.182297559899140094E+00
pair_coeff 8     24   5.583840364210079787E-01 2.182297559899140094E+00
pair_coeff 9     24   1.469768559452463708E-01 2.726013321860754957E+00
pair_coeff 10     24   5.583840364210079787E-01 2.182297559899140094E+00
pair_coeff 11     24   5.583840364210079787E-01 2.182297559899140094E+00
pair_coeff 12      24   3.676802214070164498E-01 2.331880049283297840E+00
pair_coeff 13    24   5.838741162631456982E-02 3.175123618634094314E+00
pair_coeff 14    24   2.150410044373349261E-01 2.760639115110234521E+00
pair_coeff 15    24   4.472924585510560935E-01 2.486054939218036886E+00
pair_coeff 16    24   6.500695009260647472E-01 2.385548453460561547E+00
pair_coeff 17    24   7.847305442853571567E-01 2.373434017715752464E+00
pair_coeff 18   24   4.832879194471943474E-01 2.450485069368524726E+00
pair_coeff 19    24   4.949362401301840020E-01 2.383406620605556636E+00
pair_coeff 20     24   2.401890134458197767E-01 1.898363561004745348E+00
pair_coeff 21      24   0.000000000000000000E+00 0.000000000000000000E+00
pair_coeff 22    24   0.000000000000000000E+00 0.000000000000000000E+00
pair_coeff 23      24   9.637380899683938296E-01 2.241072162744267793E+00
pair_coeff 24   24   2.038998270244088307E+00 1.518400541713947227E+00
pair_coeff 1      25   1.222674138853568487E-01 2.793586526663335956E+00
pair_coeff 2     25   4.503330433195999044E-02 3.299577089353393333E+00
pair_coeff 3     25   1.126016118096603430E-01 2.832194971194489597E+00
pair_coeff 4     25   1.126016118096603430E-01 2.832194971194489597E+00
pair_coeff 5     25   9.850267617010251275E-02 2.931482855034457380E+00
pair_coeff 6      25   5.583840364210079787E-01 2.182297559899140094E+00
pair_coeff 7     25   5.583840364210079787E-01 2.182297559899140094E+00
pair_coeff 8     25   5.583840364210079787E-01 2.182297559899140094E+00
pair_coeff 9     25   8.083547442600935717E-02 3.011635913604119530E+00
pair_coeff 10     25   5.583840364210079787E-01 2.182297559899140094E+00
pair_coeff 11     25   5.583840364210079787E-01 2.182297559899140094E+00
pair_coeff 12      25   3.676802214070164498E-01 2.331880049283297840E+00
pair_coeff 13    25   5.838741162631456982E-02 3.175123618634094314E+00
pair_coeff 14    25   2.150410044373349261E-01 2.760639115110234521E+00
pair_coeff 15    25   4.472924585510560935E-01 2.486054939218036886E+00
pair_coeff 16    25   6.500695009260647472E-01 2.385548453460561547E+00
pair_coeff 17    25   7.847305442853571567E-01 2.373434017715752464E+00
pair_coeff 18   25   4.832879194471943474E-01 2.450485069368524726E+00
pair_coeff 19    25   4.949362401301840020E-01 2.383406620605556636E+00
pair_coeff 20     25   2.401890134458197767E-01 1.898363561004745348E+00
pair_coeff 21      25   0.000000000000000000E+00 0.000000000000000000E+00
pair_coeff 22    25   0.000000000000000000E+00 0.000000000000000000E+00
pair_coeff 23      25   9.637380899683938296E-01 2.241072162744267793E+00
pair_coeff 24   25   2.038998270244088307E+00 1.518400541713947227E+00
pair_coeff 25   25   2.038998270244088307E+00 1.518400541713947227E+00
pair_coeff 1      26     0.000000000000000000E+00 0.000000000000000000E+00
pair_coeff 2     26     0.000000000000000000E+00 0.000000000000000000E+00
pair_coeff 3     26     0.000000000000000000E+00 0.000000000000000000E+00
pair_coeff 4     26     0.000000000000000000E+00 0.000000000000000000E+00
pair_coeff 5     26     0.000000000000000000E+00 0.000000000000000000E+00
pair_coeff 6      26     0.000000000000000000E+00 0.000000000000000000E+00
pair_coeff 7     26     0.000000000000000000E+00 0.000000000000000000E+00
pair_coeff 8     26     0.000000000000000000E+00 0.000000000000000000E+00
pair_coeff 9     26     0.000000000000000000E+00 0.000000000000000000E+00
pair_coeff 10     26     0.000000000000000000E+00 0.000000000000000000E+00
pair_coeff 11     26     0.000000000000000000E+00 0.000000000000000000E+00
pair_coeff 12      26     0.000000000000000000E+00 0.000000000000000000E+00
pair_coeff 13    26     0.000000000000000000E+00 0.000000000000000000E+00
pair_coeff 14    26     0.000000000000000000E+00 0.000000000000000000E+00
pair_coeff 15    26     0.000000000000000000E+00 0.000000000000000000E+00
pair_coeff 16    26     0.000000000000000000E+00 0.000000000000000000E+00
pair_coeff 17    26     0.000000000000000000E+00 0.000000000000000000E+00
pair_coeff 18   26     0.000000000000000000E+00 0.000000000000000000E+00
pair_coeff 19    26     0.000000000000000000E+00 0.000000000000000000E+00
pair_coeff 20     26     0.000000000000000000E+00 0.000000000000000000E+00
pair_coeff 21      26     0.000000000000000000E+00 0.000000000000000000E+00
pair_coeff 22    26     0.000000000000000000E+00 0.000000000000000000E+00
pair_coeff 23      26     0.000000000000000000E+00 0.000000000000000000E+00
pair_coeff 24   26     0.000000000000000000E+00 0.000000000000000000E+00
pair_coeff 25   26     0.000000000000000000E+00 0.000000000000000000E+00
pair_coeff 26     26     0.000000000000000000E+00 0.000000000000000000E+00
pair_coeff 1      27   5.148167869545027253E-01 2.198391984374735042E+00
pair_coeff 2     27   1.896163524310913173E-01 2.596577466216851260E+00
pair_coeff 3     27   4.741181493550025716E-01 2.228774610499382636E+00
pair_coeff 4     27   4.741181493550025716E-01 2.228774610499382636E+00
pair_coeff 5     27   4.147534460805777923E-01 2.306908466707524141E+00
pair_coeff 6      27   4.114317946416216065E-01 2.296253463382908144E+00
pair_coeff 7     27   4.114317946416216065E-01 2.296253463382908144E+00
pair_coeff 8     27   4.114317946416216065E-01 2.296253463382908144E+00
pair_coeff 9     27   3.403642711782671748E-01 2.369984315549452436E+00
pair_coeff 10     27   4.114317946416216065E-01 2.296253463382908144E+00
pair_coeff 11     27   4.114317946416216065E-01 2.296253463382908144E+00
pair_coeff 12      27   2.709162932331031781E-01 2.453646898458591963E+00
pair_coeff 13    27   4.302135444964862165E-02 3.340923226938115054E+00
pair_coeff 14    27   1.584477717956855047E-01 2.904795040652100369E+00
pair_coeff 15    27   3.295766478763905716E-01 2.615872541507785698E+00
pair_coeff 16    27   4.789880153488779158E-01 2.510117776321816319E+00
pair_coeff 17    27   5.782097536577677221E-01 2.497370745143705939E+00
pair_coeff 18   27   3.560990341007065352E-01 2.578445272956105150E+00
pair_coeff 19    27   3.646818179386565606E-01 2.507864100562072096E+00
pair_coeff 20     27   1.769774750163259913E-01 1.997492909224773072E+00
pair_coeff 21      27   0.000000000000000000E+00 0.000000000000000000E+00
pair_coeff 22    27   0.000000000000000000E+00 0.000000000000000000E+00
pair_coeff 23      27   7.101071414248384395E-01 2.358097177009347067E+00
pair_coeff 24   27   1.502386642309327724E+00 1.597688860942628741E+00
pair_coeff 25   27   1.502386642309327724E+00 1.597688860942628741E+00
pair_coeff 26     27   0.000000000000000000E+00 0.000000000000000000E+00
pair_coeff 27   27   1.106997321149905122E+00 1.681117482676084629E+00
pair_coeff 1      28   1.337556733810085774E-01 2.357481108494590138E+00
pair_coeff 2     28   4.926463850082780926E-02 2.784481733402069281E+00
pair_coeff 3     28   1.231816714918823885E-01 2.390062407746226469E+00
pair_coeff 4     28   1.231816714918823885E-01 2.390062407746226469E+00
pair_coeff 5     28   1.077579983274792180E-01 2.473850508891853206E+00
pair_coeff 6      28   1.068949928152020112E-01 2.462424444192170547E+00
pair_coeff 7     28   1.068949928152020112E-01 2.462424444192170547E+00
pair_coeff 8     28   1.068949928152020112E-01 2.462424444192170547E+00
pair_coeff 9     28   8.843078438758973647E-02 2.541490912925349122E+00
pair_coeff 10     28   1.068949928152020112E-01 2.462424444192170547E+00
pair_coeff 11     28   1.068949928152020112E-01 2.462424444192170547E+00
pair_coeff 12      28   7.038735361689542336E-02 2.631207833337182223E+00
pair_coeff 13    28   1.117747202498341370E-02 3.582692917558796708E+00
pair_coeff 14    28   4.116666151782900213E-02 3.115003821456256539E+00
pair_coeff 15    28   8.562802842568927042E-02 2.805173118654866293E+00
pair_coeff 16    28   1.244469220077783211E-01 2.691765290191502125E+00
pair_coeff 17    28   1.502259384614757498E-01 2.678095805674920893E+00
pair_coeff 18   28   9.251886749504166507E-02 2.765037383453741171E+00
pair_coeff 19    28   9.474877930215237776E-02 2.689348524634663118E+00
pair_coeff 20     28   4.598090416614816073E-02 2.142043744391038285E+00
pair_coeff 21      28   0.000000000000000000E+00 0.000000000000000000E+00
pair_coeff 22    28   0.000000000000000000E+00 0.000000000000000000E+00
pair_coeff 23      28   1.844944867392919463E-01 2.528743548150760745E+00
pair_coeff 24   28   3.903383535907812840E-01 1.713307423651182493E+00
pair_coeff 25   28   3.903383535907812840E-01 1.713307423651182493E+00
pair_coeff 26     28   0.000000000000000000E+00 0.000000000000000000E+00
pair_coeff 27   28   2.876113908353647441E-01 1.802773452022052636E+00
pair_coeff 28   28   7.472494337414144205E-02 1.933233193281657103E+00
pair_coeff 1      29   1.703146428752259911E-01 2.843803441534021204E+00
pair_coeff 2     29   6.272996950749848422E-02 3.358889582531555007E+00
pair_coeff 3     29   1.568504861035088516E-01 2.883105903219756350E+00
pair_coeff 4     29   1.568504861035088516E-01 2.883105903219756350E+00
pair_coeff 5     29   1.372111144012202466E-01 2.984178564858046556E+00
pair_coeff 6      29   1.361122266164445094E-01 2.970395429120896935E+00
pair_coeff 7     29   1.361122266164445094E-01 2.970395429120896935E+00
pair_coeff 8     29   1.361122266164445094E-01 2.970395429120896935E+00
pair_coeff 9     29   1.126012608021971506E-01 3.065772437692955599E+00
pair_coeff 10     29   1.361122266164445094E-01 2.970395429120896935E+00
pair_coeff 11     29   1.361122266164445094E-01 2.970395429120896935E+00
pair_coeff 12      29   8.962608232733035307E-02 3.173996968575379718E+00
pair_coeff 13    29   1.423257128510838597E-02 4.321762924080988277E+00
pair_coeff 14    29   5.241860085293292143E-02 3.757594729361648955E+00
pair_coeff 15    29   1.090324373747397629E-01 3.383849372190097071E+00
pair_coeff 16    29   1.584615631091823018E-01 3.247046760402909182E+00
pair_coeff 17    29   1.912866677944946026E-01 3.230557412101377146E+00
pair_coeff 18   29   1.178067253398141917E-01 3.335434077797200025E+00
pair_coeff 19    29   1.206461311270324160E-01 3.244131442785662678E+00
pair_coeff 20     29   5.854870357409030363E-02 2.583923727009426852E+00
pair_coeff 21      29   0.000000000000000000E+00 0.000000000000000000E+00
pair_coeff 22    29   0.000000000000000000E+00 0.000000000000000000E+00
pair_coeff 23      29   2.349217182881164212E-01 3.050395432258705242E+00
pair_coeff 24   29   4.970281679412999476E-01 2.066743835286263042E+00
pair_coeff 25   29   4.970281679412999476E-01 2.066743835286263042E+00
pair_coeff 26     29   0.000000000000000000E+00 0.000000000000000000E+00
pair_coeff 27   29   3.662232044351344529E-01 2.174665717868782711E+00
pair_coeff 28   29   9.514925029300028148E-02 2.332037863859216742E+00
pair_coeff 29   29   1.211560614504652439E-01 2.813111536348800179E+00
pair_coeff 1      30     2.698242160009388657E-01 3.067797545829641592E+00
pair_coeff 2     30     3.133482940435941000E-01 2.992280441419951309E+00
pair_coeff 3     30     2.452947418190353224E-01 3.116918714488987607E+00
pair_coeff 4     30     2.452947418190353224E-01 3.116918714488987607E+00
pair_coeff 5     30     1.923710802470132430E-01 3.285476264338809127E+00
pair_coeff 6      30     1.908304307803131428E-01 3.270301513790756509E+00
pair_coeff 7     30     1.908304307803131428E-01 3.270301513790756509E+00
pair_coeff 8     30     1.908304307803131428E-01 3.270301513790756509E+00
pair_coeff 9     30     1.908304307803131428E-01 3.270301513790756509E+00
pair_coeff 10     30     1.908304307803131428E-01 3.270301513790756509E+00
pair_coeff 11     30     1.908304307803131428E-01 3.270301513790756509E+00
pair_coeff 12      30     1.256564845410435005E-01 3.494459690227617266E+00
pair_coeff 13    30     1.995417881967565324E-02 4.758109878000214898E+00
pair_coeff 14    30     7.349129780864194217E-02 4.136980420576664486E+00
pair_coeff 15    30     1.528643495920544437E-01 3.725499849556486165E+00
pair_coeff 16    30     2.221643793651205678E-01 3.574884956996347896E+00
pair_coeff 17    30     2.681854387748578428E-01 3.556730761031980492E+00
pair_coeff 18   30     1.651659715241092508E-01 3.672196303169541487E+00
pair_coeff 19    30     1.691468411565035523E-01 3.571675294227750541E+00
pair_coeff 20     30     8.208575087201354370E-02 2.844809681941795620E+00
pair_coeff 21      30     0.000000000000000000E+00 0.000000000000000000E+00
pair_coeff 22    30     0.000000000000000000E+00 0.000000000000000000E+00
pair_coeff 23      30     3.293621287006147091E-01 3.358378720212484847E+00
pair_coeff 24   30     6.968374682861073754E-01 2.275412703269175108E+00
pair_coeff 25   30     6.968374682861073754E-01 2.275412703269175108E+00
pair_coeff 26     30     0.000000000000000000E+00 0.000000000000000000E+00
pair_coeff 27   30     5.134478628509925313E-01 2.394230922729341682E+00
pair_coeff 28   30     1.334000102210023686E-01 2.567492153276457856E+00
pair_coeff 29   30     1.698617675500217472E-01 3.097137446951440776E+00
pair_coeff 30     30     2.381475572067369983E-01 3.409840044152281813E+00
pair_coeff 1      31      1.825200170718821457E-01 2.848641691863192271E+00
pair_coeff 2     31      2.119614644894694810E-01 2.778519342243783719E+00
pair_coeff 3     31      1.057395499456308119E-01 3.119966996841143647E+00
pair_coeff 4     31      1.659272882471655997E-01 2.894253765967063963E+00
pair_coeff 5     31      9.249981842420902656E-02 3.229343266454477224E+00
pair_coeff 6      31      7.192433081344887236E-02 3.347591749745056244E+00
pair_coeff 7     31      6.211065545356941192E-02 3.430447483334676306E+00
pair_coeff 8     31      4.555051328896060625E-02 3.612403446600987778E+00
pair_coeff 9     31      7.590927472598106573E-02 3.317640470558243848E+00
pair_coeff 10     31      6.506004412035899798E-02 3.404024952464428821E+00
pair_coeff 11     31      7.043799131579189798E-02 3.359262692221449242E+00
pair_coeff 12      31      8.499913033581890653E-02 3.244824150032262100E+00
pair_coeff 13    31      1.349781392048931411E-02 4.418202300006069727E+00
pair_coeff 14    31      4.971248737222838665E-02 3.841444791719262675E+00
pair_coeff 15    31      1.034036311148842646E-01 3.459359372949309286E+00
pair_coeff 16    31      1.502809752047785663E-01 3.319504035055336644E+00
pair_coeff 17    31      1.814114818495274339E-01 3.302646729860391872E+00
pair_coeff 18   31      1.117249459261637351E-01 3.409863699817805127E+00
pair_coeff 19    31      1.144177672156473091E-01 3.316523662640645131E+00
pair_coeff 20     31      5.552612316481649046E-02 2.641583528356301613E+00
pair_coeff 21      31      0.000000000000000000E+00 0.000000000000000000E+00
pair_coeff 22    31      0.000000000000000000E+00 0.000000000000000000E+00
pair_coeff 23      31      2.227938701879095817E-01 3.118464467275081642E+00
pair_coeff 24   31      1.066111026131294215E-01 2.706851401515291577E+00
pair_coeff 25   31      5.863480344158913254E-02 2.990466271099721407E+00
pair_coeff 26     31      0.000000000000000000E+00 0.000000000000000000E+00
pair_coeff 27   31      2.468865591596759723E-01 2.353325024008075417E+00
pair_coeff 28   31      6.414413594489304371E-02 2.523626052896363436E+00
pair_coeff 29   31      8.167642784672754508E-02 3.044222254215389167E+00
pair_coeff 30     31      1.610926433928725754E-01 3.166249521765611696E+00
pair_coeff 31      31      1.089695819670959825E-01 2.940060502624928240E+00
pair_coeff 1      32     3.028875918701723902E-01 3.094659625059138719E+00
pair_coeff 2     32     3.517449679133345941E-01 3.018481281955716966E+00
pair_coeff 3     32     2.468521531134249269E-01 3.201992541656678348E+00
pair_coeff 4     32     2.753523562456112184E-01 3.144210905779225573E+00
pair_coeff 5     32     2.159436024870309834E-01 3.314244369926244271E+00
pair_coeff 6      32     1.679095090878598429E-01 3.435601666955987898E+00
pair_coeff 7     32     1.449991894034274031E-01 3.520635720603371155E+00
pair_coeff 8     32     1.063390404686152813E-01 3.707375400182857383E+00
pair_coeff 9     32     1.772124802594848836E-01 3.404862953159864425E+00
pair_coeff 10     32     1.518846257717465786E-01 3.493518527740791413E+00
pair_coeff 11     32     1.644396049182014208E-01 3.447579444541888805E+00
pair_coeff 12      32     1.410540186851716171E-01 3.525057684932574986E+00
pair_coeff 13    32     2.239929855079176788E-02 4.799772576602748586E+00
pair_coeff 14    32     8.249668078937649751E-02 4.173204419770964790E+00
pair_coeff 15    32     1.715958464253498628E-01 3.758120865328633986E+00
pair_coeff 16    32     2.493876749186909880E-01 3.606187166974876845E+00
pair_coeff 17    32     3.010480042491057717E-01 3.587874010243685685E+00
pair_coeff 18   32     1.854048688263800759E-01 3.704350585376364968E+00
pair_coeff 19    32     1.898735411878733903E-01 3.602949399934630925E+00
pair_coeff 20     32     9.214426998795607893E-02 2.869719247168172060E+00
pair_coeff 21      32     0.000000000000000000E+00 0.000000000000000000E+00
pair_coeff 22    32     0.000000000000000000E+00 0.000000000000000000E+00
pair_coeff 23      32     3.697210854307304562E-01 3.387785170252723521E+00
pair_coeff 24   32     2.488868189752940496E-01 2.778015923822349631E+00
pair_coeff 25   32     1.368847085539993957E-01 3.069087174906648396E+00
pair_coeff 26     32     0.000000000000000000E+00 0.000000000000000000E+00
pair_coeff 27   32     5.763640826414281326E-01 2.415195155140145822E+00
pair_coeff 28   32     1.497464106452001675E-01 2.589973486093279487E+00
pair_coeff 29   32     1.906760723205734864E-01 3.124256430600719447E+00
pair_coeff 30     32     2.673293790349109966E-01 3.439697096991523484E+00
pair_coeff 31      32     1.808324084043584357E-01 3.193973660742658982E+00
pair_coeff 32     32     3.000870457518571288E-01 3.469815582505817453E+00
pair_coeff 1      33     4.619134934213758870E-01 3.174341374980300667E+00
pair_coeff 2     33     5.364225913614864005E-01 3.096201580725539859E+00
pair_coeff 3     33     3.764576148503470665E-01 3.284437915256962270E+00
pair_coeff 4     33     4.199213576557962457E-01 3.225168509344078061E+00
pair_coeff 5     33     3.293210632726623621E-01 3.399580020064839836E+00
pair_coeff 6      33     2.560674983169540231E-01 3.524062042578035125E+00
pair_coeff 7     33     2.211285107688185092E-01 3.611285565510714335E+00
pair_coeff 8     33     1.621705180019040737E-01 3.802833445749207453E+00
pair_coeff 9     33     2.702548339108319375E-01 3.492531863870627973E+00
pair_coeff 10     33     2.316290266433154443E-01 3.583470155189018680E+00
pair_coeff 11     33     2.507757808618153450E-01 3.536348225738003670E+00
pair_coeff 12      33     2.151119962679723108E-01 3.615821387226038297E+00
pair_coeff 13    33     3.415966358971698341E-02 4.923357824889950329E+00
pair_coeff 14    33     1.258101389489161837E-01 4.280656699257024300E+00
pair_coeff 15    33     2.616892834385430300E-01 3.854885512574417916E+00
pair_coeff 16    33     3.803243686103310317E-01 3.699039803071263677E+00
pair_coeff 17    33     4.591080620755257913E-01 3.680255116494558720E+00
pair_coeff 18   33     2.827484946746637862E-01 3.799730747567426459E+00
pair_coeff 19    33     2.895633663196458540E-01 3.695718669530379863E+00
pair_coeff 20     33     1.405230283158743487E-01 2.943609199247290142E+00
pair_coeff 21      33     0.000000000000000000E+00 0.000000000000000000E+00
pair_coeff 22    33     0.000000000000000000E+00 0.000000000000000000E+00
pair_coeff 23      33     5.638367590708479593E-01 3.475014359704387434E+00
pair_coeff 24   33     3.795605468998184961E-01 2.849544685281790724E+00
pair_coeff 25   33     2.087536618246373654E-01 3.148110481630561619E+00
pair_coeff 26     33     0.000000000000000000E+00 0.000000000000000000E+00
pair_coeff 27   33     8.789740948174059598E-01 2.477381954232469763E+00
pair_coeff 28   33     2.283681785752544047E-01 2.656660503285802832E+00
pair_coeff 29   33     2.907872525699738975E-01 3.204700243411942928E+00
pair_coeff 30     33     4.076860547562866088E-01 3.528262922346804054E+00
pair_coeff 31      33     2.757753428396018114E-01 3.276212563021035251E+00
pair_coeff 32     33     4.576425689077261438E-01 3.559156903043612541E+00
pair_coeff 33     33     6.979198997135206417E-01 3.650798597006346569E+00
pair_coeff 1      34   2.726298193589453134E-01 3.152721713066568121E+00
pair_coeff 2     34   3.166064561130476629E-01 3.075114109819085950E+00
pair_coeff 3     34   2.478452903263138885E-01 3.203202676262477233E+00
pair_coeff 4     34   2.478452903263138885E-01 3.203202676262477233E+00
pair_coeff 5     34   1.943713341779741421E-01 3.376426312885838499E+00
pair_coeff 6      34   1.928146652027906693E-01 3.360831487989961452E+00
pair_coeff 7     34   1.928146652027906693E-01 3.360831487989961452E+00
pair_coeff 8     34   1.928146652027906693E-01 3.360831487989961452E+00
pair_coeff 9     34   1.928146652027906693E-01 3.360831487989961452E+00
pair_coeff 10     34   1.928146652027906693E-01 3.360831487989961452E+00
pair_coeff 11     34   1.928146652027906693E-01 3.360831487989961452E+00
pair_coeff 12      34   1.269630472365963769E-01 3.591194913038851411E+00
pair_coeff 13    34   2.016166023825427880E-02 4.889826040157090326E+00
pair_coeff 14    34   7.425545246819055534E-02 4.251502194534839241E+00
pair_coeff 15    34   1.544538167603142498E-01 3.828630831160853454E+00
pair_coeff 16    34   2.244744208358758208E-01 3.673846548628572073E+00
pair_coeff 17    34   2.709740023024271305E-01 3.655189799952984320E+00
pair_coeff 18   34   1.668833496423683671E-01 3.773851711754483418E+00
pair_coeff 19    34   1.709056119317078348E-01 3.670548034515104696E+00
pair_coeff 20     34   8.293926973590307061E-02 2.923560997691061925E+00
pair_coeff 21      34   0.000000000000000000E+00 0.000000000000000000E+00
pair_coeff 22    34   0.000000000000000000E+00 0.000000000000000000E+00
pair_coeff 23      34   3.327868009112045500E-01 3.451346887707100741E+00
pair_coeff 24   34   7.040831098003642596E-01 2.338401712830169732E+00
pair_coeff 25   34   7.040831098003642596E-01 2.338401712830169732E+00
pair_coeff 26     34   0.000000000000000000E+00 0.000000000000000000E+00
pair_coeff 27   34   5.187866388494037917E-01 2.460509112293086442E+00
pair_coeff 28   34   1.347870892689141398E-01 2.638566639042558393E+00
pair_coeff 29   34   1.716279720534513720E-01 3.182873814678249147E+00
pair_coeff 30     34   2.406237900523386375E-01 3.504232787426495133E+00
pair_coeff 31      34   1.627676674805978718E-01 3.253899081387234382E+00
pair_coeff 32     34   2.701090413448035132E-01 3.534916356784718605E+00
pair_coeff 33     34   4.119251307784054794E-01 3.625933901607006682E+00
pair_coeff 34   34   2.431257705023985027E-01 3.601238553560273559E+00
pair_coeff 1      35   1.774056427875315700E-01 3.022113465134438570E+00
pair_coeff 2     35   1.088910246333028992E-01 3.278234300527326894E+00
pair_coeff 3     35   1.633809098206280841E-01 3.063880240200058669E+00
pair_coeff 4     35   1.633809098206280841E-01 3.063880240200058669E+00
pair_coeff 5     35   1.429238586712428538E-01 3.171290283817308264E+00
pair_coeff 6      35   1.111321413093139809E-01 3.287413047857584036E+00
pair_coeff 7     35   9.596877802844315519E-02 3.368779307561466041E+00
pair_coeff 8     35   7.038127462972523785E-02 3.547464300384358893E+00
pair_coeff 9     35   1.172893810776735740E-01 3.258000194272241412E+00
pair_coeff 10     35   1.005259546387323316E-01 3.342831766990879583E+00
pair_coeff 11     35   1.088355597600791647E-01 3.298874185130554082E+00
pair_coeff 12      35   9.335763782481623640E-02 3.373010538257620983E+00
pair_coeff 13    35   1.482514019187304057E-02 4.592742851080654276E+00
pair_coeff 14    35   5.460103383565441393E-02 3.993200606718578349E+00
pair_coeff 15    35   1.135719707396375816E-01 3.596020949382504384E+00
pair_coeff 16    35   1.650590635421556873E-01 3.450640643166755339E+00
pair_coeff 17    35   1.992508317774452642E-01 3.433117392155260461E+00
pair_coeff 18   35   1.227115735956721548E-01 3.544569955630175073E+00
pair_coeff 19    35   1.256691972052001172E-01 3.447542531497872709E+00
pair_coeff 20     35   6.098636157519143897E-02 2.745938968293540228E+00
pair_coeff 21      35   0.000000000000000000E+00 0.000000000000000000E+00
pair_coeff 22    35   0.000000000000000000E+00 0.000000000000000000E+00
pair_coeff 23      35   2.447026147257768958E-01 3.241659031413521852E+00
pair_coeff 24   35   1.647275683589491391E-01 2.658191106078167110E+00
pair_coeff 25   35   9.059814930521523091E-02 2.936707512061449421E+00
pair_coeff 26     35   0.000000000000000000E+00 0.000000000000000000E+00
pair_coeff 27   35   3.814707995138282293E-01 2.311019971405739337E+00
pair_coeff 28   35   9.911076125937028081E-02 2.478259547281012942E+00
pair_coeff 29   35   1.262003583272166274E-01 2.989497139204101650E+00
pair_coeff 30     35   1.769339121317631824E-01 3.291331828740973631E+00
pair_coeff 31      35   8.507700182510755105E-02 3.235098787405478848E+00
pair_coeff 32     35   1.986148143410966516E-01 3.320151206497628849E+00
pair_coeff 33     35   3.028940940468037857E-01 3.405638946730622507E+00
pair_coeff 34   35   1.787736520386526418E-01 3.382443973685540506E+00
pair_coeff 35   35   1.314546730163348442E-01 3.176942339410103067E+00
pair_coeff 1      36    3.493138043396110115E-02 2.995467182793318806E+00
pair_coeff 2     36    1.286586045970535865E-02 3.538023538529870837E+00
pair_coeff 3     36    3.216989396118666994E-02 3.036865695947625898E+00
pair_coeff 4     36    3.216989396118666994E-02 3.036865695947625898E+00
pair_coeff 5     36    2.814187644704253116E-02 3.143328694266439349E+00
pair_coeff 6      36    2.791649554839393046E-02 3.128810485949500286E+00
pair_coeff 7     36    2.791649554839393046E-02 3.128810485949500286E+00
pair_coeff 8     36    2.791649554839393046E-02 3.128810485949500286E+00
pair_coeff 9     36    2.309441755578705083E-02 3.229274074606136136E+00
pair_coeff 10     36    2.791649554839393046E-02 3.128810485949500286E+00
pair_coeff 11     36    2.791649554839393046E-02 3.128810485949500286E+00
pair_coeff 12      36    1.838222906573640236E-02 3.343270360670348218E+00
pair_coeff 13    36    2.919087599988792053E-03 4.552248169414355949E+00
pair_coeff 14    36    1.075100800082823098E-02 3.957992150107363383E+00
pair_coeff 15    36    2.236245507304574984E-02 3.564314466278117433E+00
pair_coeff 16    36    3.250032440946476475E-02 3.420215993034873669E+00
pair_coeff 17    36    3.923272392714612089E-02 3.402847246312967755E+00
pair_coeff 18   36    2.416205366169842800E-02 3.513317121179974301E+00
pair_coeff 19    36    2.474441324091778208E-02 3.417145197732238238E+00
pair_coeff 20     36    1.200828656852534135E-02 2.721727744630110912E+00
pair_coeff 21      36    0.000000000000000000E+00 0.000000000000000000E+00
pair_coeff 22    36    0.000000000000000000E+00 0.000000000000000000E+00
pair_coeff 23      36    4.818223363057468761E-02 3.213076993445320717E+00
pair_coeff 24   36    1.019400312718368312E-01 2.176965975714864943E+00
pair_coeff 25   36    1.019400312718368312E-01 2.176965975714864943E+00
pair_coeff 26     36    0.000000000000000000E+00 0.000000000000000000E+00
pair_coeff 27   36    7.511205062526553344E-02 2.290643472851174423E+00
pair_coeff 28   36    1.951502585967282086E-02 2.456408480346143008E+00
pair_coeff 29   36    2.484899949270408595E-02 2.963138438331942570E+00
pair_coeff 30     36    3.483849611111720229E-02 3.262311820657642247E+00
pair_coeff 31      36    1.675176206482257082E-02 3.206574591777111127E+00
pair_coeff 32     36    3.910749134331937410E-02 3.290877095024250742E+00
pair_coeff 33     36    5.964020458481446990E-02 3.375611081141380421E+00
pair_coeff 34   36    3.520074306999246977E-02 3.352620620536940876E+00
pair_coeff 35   36    2.588358025598428910E-02 3.148930915109191542E+00
pair_coeff 36    36    5.096507499468877836E-03 3.121166470390387637E+00
pair_coeff 1      37    2.226461306623754022E-01 3.362204455973978323E+00
pair_coeff 2     37    2.585601331580250628E-01 3.279440211868734245E+00
pair_coeff 3     37    1.814556892113898812E-01 3.478816702288478169E+00
pair_coeff 4     37    2.024055733294321535E-01 3.416039629150127599E+00
pair_coeff 5     37    1.587354808368636461E-01 3.600773118478173718E+00
pair_coeff 6      37    1.234266556414602978E-01 3.732622205057627429E+00
pair_coeff 7     37    1.065857741828254851E-01 3.825007768809989717E+00
pair_coeff 8     37    7.816753321752194228E-02 4.027891788010422580E+00
pair_coeff 9     37    1.302650689360985159E-01 3.699226015163477044E+00
pair_coeff 10     37    1.116471098283786517E-01 3.795546193799352430E+00
pair_coeff 11     37    1.208760039875793058E-01 3.745635506050692953E+00
pair_coeff 12      37    1.036857643481583074E-01 3.829812028396864854E+00
pair_coeff 13    37    1.646524085418059336E-02 5.214730762000061581E+00
pair_coeff 14    37    6.064152927768903800E-02 4.533993458352017392E+00
pair_coeff 15    37    1.261364026450952358E-01 4.083024387295987268E+00
pair_coeff 16    37    1.833194965587523484E-01 3.917955455811204413E+00
pair_coeff 17    37    2.212938895114058557E-01 3.898059058590013226E+00
pair_coeff 18   37    1.362871169309986807E-01 4.024605466717271263E+00
pair_coeff 19    37    1.395719415233208360E-01 3.914437771771909880E+00
pair_coeff 20     37    6.773326384502838249E-02 3.117817146058102118E+00
pair_coeff 21      37    0.000000000000000000E+00 0.000000000000000000E+00
pair_coeff 22    37    0.000000000000000000E+00 0.000000000000000000E+00
pair_coeff 23      37    2.717739891131936147E-01 3.680671794426697563E+00
pair_coeff 24   37    1.829513281662208113E-01 3.018185729444698318E+00
pair_coeff 25   37    1.006209944693221142E-01 3.334421172424263169E+00
pair_coeff 26     37    0.000000000000000000E+00 0.000000000000000000E+00
pair_coeff 27   37    4.236727957739777617E-01 2.623997756297280493E+00
pair_coeff 28   37    1.100753540442943462E-01 2.813886323808834078E+00
pair_coeff 29   37    1.401618648355585917E-01 3.394360015399224828E+00
pair_coeff 30     37    1.965080559655630332E-01 3.737071700247052153E+00
pair_coeff 31      37    1.329259999757477217E-01 3.470104559304247438E+00
pair_coeff 32     37    2.205875096632962662E-01 3.769794040818323477E+00
pair_coeff 33     37    3.364031737469428962E-01 3.866859250698725603E+00
pair_coeff 34   37    1.985513257278677390E-01 3.840523019086392154E+00
pair_coeff 35   37    1.459974627294264860E-01 3.607190623033505794E+00
pair_coeff 36    37    2.874707271347901050E-02 3.575385655778474892E+00
pair_coeff 37    37    1.621491167589119986E-01 4.095706752209074430E+00
pair_coeff 1      38   1.763627633860331279E-01 3.063392634298282680E+00
pair_coeff 2     38   2.048110131065301875E-01 2.987983961478049899E+00
pair_coeff 3     38   1.603297848963937400E-01 3.112443272096635738E+00
pair_coeff 4     38   1.603297848963937400E-01 3.112443272096635738E+00
pair_coeff 5     38   1.257377703556508686E-01 3.280758797795926274E+00
pair_coeff 6      38   1.247307695705341529E-01 3.265605835984801697E+00
pair_coeff 7     38   1.247307695705341529E-01 3.265605835984801697E+00
pair_coeff 8     38   1.247307695705341529E-01 3.265605835984801697E+00
pair_coeff 9     38   1.247307695705341529E-01 3.265605835984801697E+00
pair_coeff 10     38   1.247307695705341529E-01 3.265605835984801697E+00
pair_coeff 11     38   1.247307695705341529E-01 3.265605835984801697E+00
pair_coeff 12      38   8.213171219204309925E-02 3.489442153850004225E+00
pair_coeff 13    38   1.304246953774084068E-02 4.751277923558641980E+00
pair_coeff 14    38   4.803545270493036340E-02 4.131040317787165073E+00
pair_coeff 15    38   9.991534309570471173E-02 3.720150573079720857E+00
pair_coeff 16    38   1.452112951590650569E-01 3.569751941621275737E+00
pair_coeff 17    38   1.752916242405209712E-01 3.551623812444546502E+00
pair_coeff 18   38   1.079559410458155871E-01 3.666923562840495698E+00
pair_coeff 19    38   1.105579208808877417E-01 3.566546887462056503E+00
pair_coeff 20     38   5.365296737619508483E-02 2.840724948583317921E+00
pair_coeff 21      38   0.000000000000000000E+00 0.000000000000000000E+00
pair_coeff 22    38   0.000000000000000000E+00 0.000000000000000000E+00
pair_coeff 23      38   2.152779911056781903E-01 3.353556576335538608E+00
pair_coeff 24   38   4.554675757398939928E-01 2.272145541239902311E+00
pair_coeff 25   38   4.554675757398939928E-01 2.272145541239902311E+00
pair_coeff 26     38   0.000000000000000000E+00 0.000000000000000000E+00
pair_coeff 27   38   3.356002855827399101E-01 2.390793155000958237E+00
pair_coeff 28   38   8.719304288914962731E-02 2.563805607595497360E+00
pair_coeff 29   38   1.110252117573227587E-01 3.092690407585096501E+00
pair_coeff 30     38   1.556582352210648112E-01 3.404944009291379192E+00
pair_coeff 31      38   1.052935283978697484E-01 3.161703247501671754E+00
pair_coeff 32     38   1.747320856505523434E-01 3.434758191740909350E+00
pair_coeff 33     38   2.664721509299896041E-01 3.523196849439405476E+00
pair_coeff 34   38   1.572767529134725395E-01 3.499201218301315031E+00
pair_coeff 35   38   1.156477136957594076E-01 3.286605954458409862E+00
pair_coeff 36    38   2.277117131083897586E-02 3.257627614890140855E+00
pair_coeff 37    38   1.284417844007869070E-01 3.731705808274059954E+00
pair_coeff 38   38   1.017414853056947954E-01 3.400055004425153182E+00
pair_coeff 1      39  3.025968882784489944E-01 3.081336470273898787E+00
pair_coeff 2     39  3.514073722894541785E-01 3.005486090817345968E+00
pair_coeff 3     39  2.750880802531354141E-01 3.130674422401240609E+00
pair_coeff 4     39  2.750880802531354141E-01 3.130674422401240609E+00
pair_coeff 5     39  2.157363454631790467E-01 3.299975857040665872E+00
pair_coeff 6      39  2.140085697228813477E-01 3.284734136688360451E+00
pair_coeff 7     39  2.140085697228813477E-01 3.284734136688360451E+00
pair_coeff 8     39  2.140085697228813477E-01 3.284734136688360451E+00
pair_coeff 9     39  2.140085697228813477E-01 3.284734136688360451E+00
pair_coeff 10     39  2.140085697228813477E-01 3.284734136688360451E+00
pair_coeff 11     39  2.140085697228813477E-01 3.284734136688360451E+00
pair_coeff 12      39  1.409186387258750672E-01 3.509881576780662371E+00
pair_coeff 13    39  2.237780028966923282E-02 4.779108555120642698E+00
pair_coeff 14    39  8.241750263201898241E-02 4.155237904815708205E+00
pair_coeff 15    39  1.714311532183001030E-01 3.741941371601773980E+00
pair_coeff 16    39  2.491483191485096838E-01 3.590661779490871286E+00
pair_coeff 17    39  3.007590662454852626E-01 3.572427464716889212E+00
pair_coeff 18   39  1.852269220806647965E-01 3.688402583913419353E+00
pair_coeff 19    39  1.896913055272583803E-01 3.587437951712664219E+00
pair_coeff 20     39  9.205583232672064076E-02 2.857364507599851500E+00
pair_coeff 21      39  0.000000000000000000E+00 0.000000000000000000E+00
pair_coeff 22    39  0.000000000000000000E+00 0.000000000000000000E+00
pair_coeff 23      39  3.693662367992399664E-01 3.373200048891741964E+00
pair_coeff 24   39  7.814748900761182560E-01 2.285454643849949008E+00
pair_coeff 25   39  7.814748900761182560E-01 2.285454643849949008E+00
pair_coeff 26     39  0.000000000000000000E+00 0.000000000000000000E+00
pair_coeff 27   39  5.758109034638668744E-01 2.404797236536131866E+00
pair_coeff 28   39  1.496026879553617739E-01 2.578823110340977554E+00
pair_coeff 29   39  1.904930664115593308E-01 3.110805855398001363E+00
pair_coeff 30     39  2.670728032862023649E-01 3.424888483964596109E+00
pair_coeff 31      39  1.806588501866098206E-01 3.180222938331227489E+00
pair_coeff 32     39  2.997990300510781636E-01 3.454877303120381882E+00
pair_coeff 33     39  4.572033355350892392E-01 3.543833990649556398E+00
pair_coeff 34   39  2.698497977488837352E-01 3.519697804995386647E+00
pair_coeff 35   39  1.984241890350484927E-01 3.305857263449297090E+00
pair_coeff 36    39  3.906995699558794138E-02 3.276709183128165837E+00
pair_coeff 37    39  2.203757955387509737E-01 3.753564291637640160E+00
pair_coeff 38   39  1.745857558702323398E-01 3.420002180612172538E+00
pair_coeff 39  39  2.995112907802387481E-01 3.440003336141669088E+00
pair_coeff 1      40   7.770287548036601544E-02 2.465397265096893165E+00
pair_coeff 2     40   9.023676167734992482E-02 2.404708885274443819E+00
pair_coeff 3     40   7.063897770942365040E-02 2.504872880114495270E+00
pair_coeff 4     40   7.063897770942365040E-02 2.504872880114495270E+00
pair_coeff 5     40   5.539823784535763407E-02 2.640332054392829697E+00
pair_coeff 6      40   5.495456790555701410E-02 2.628137055231117181E+00
pair_coeff 7     40   5.495456790555701410E-02 2.628137055231117181E+00
pair_coeff 8     40   5.495456790555701410E-02 2.628137055231117181E+00
pair_coeff 9     40   5.495456790555701410E-02 2.628137055231117181E+00
pair_coeff 10     40   5.495456790555701410E-02 2.628137055231117181E+00
pair_coeff 11     40   5.495456790555701410E-02 2.628137055231117181E+00
pair_coeff 12      40   3.618604110595938922E-02 2.808278980140014092E+00
pair_coeff 13    40   5.746322902807278477E-03 3.823795705227954755E+00
pair_coeff 14    40   2.116372372780480487E-02 3.324632757632268287E+00
pair_coeff 15    40   4.402125093804482719E-02 2.993951524832954014E+00
pair_coeff 16    40   6.397799041847561374E-02 2.872911743474042101E+00
pair_coeff 17    40   7.723094710927499995E-02 2.858322350135023004E+00
pair_coeff 18   40   4.756382176938069029E-02 2.951114794077698278E+00
pair_coeff 19    40   4.871021634409310186E-02 2.870332337990671334E+00
pair_coeff 20     40   2.363871921228234349E-02 2.286195847282922244E+00
pair_coeff 21      40   0.000000000000000000E+00 0.000000000000000000E+00
pair_coeff 22    40   0.000000000000000000E+00 0.000000000000000000E+00
pair_coeff 23      40   9.484836036467202136E-02 2.698919204504523606E+00
pair_coeff 24   40   2.006724075058574086E-01 1.828607061516331456E+00
pair_coeff 25   40   2.006724075058574086E-01 1.828607061516331456E+00
pair_coeff 26     40   0.000000000000000000E+00 0.000000000000000000E+00
pair_coeff 27   40   1.478606180871174514E-01 1.924093842806378074E+00
pair_coeff 28   40   3.841598999863683750E-02 2.063333071457193135E+00
pair_coeff 29   40   4.891609792639325244E-02 2.488975910983167061E+00
pair_coeff 30     40   6.858076068133200920E-02 2.740275456148935529E+00
pair_coeff 31      40   4.639080137386862590E-02 2.544516968594239259E+00
pair_coeff 32     40   7.698442252240610129E-02 2.764269704567898334E+00
pair_coeff 33     40   1.174037646335611834E-01 2.835444526357811412E+00
pair_coeff 34   40   6.929385610069017931E-02 2.816133007906088892E+00
pair_coeff 35   40   5.095270523302689036E-02 2.645037805749309356E+00
pair_coeff 36    40   1.003264779331716934E-02 2.621716237916714931E+00
pair_coeff 37    40   5.658958721306098921E-02 3.003251098425550492E+00
pair_coeff 38   40   4.492103907914993949E-02 2.799891255752950503E+00
pair_coeff 39  40   7.712993371945030263E-02 2.820082387646319688E+00
pair_coeff 40   40   1.974960730563848910E-02 2.202188219488486975E+00
pair_coeff 1      41  3.078683944880841739E-01 3.134598379462572915E+00
pair_coeff 2     41  3.575292004274581159E-01 3.057436901376735072E+00
pair_coeff 3     41  2.798803586255310671E-01 3.184789154237201991E+00
pair_coeff 4     41  2.798803586255310671E-01 3.184789154237201991E+00
pair_coeff 5     41  2.194946639681157330E-01 3.357017019574562333E+00
pair_coeff 6      41  2.177367888418141884E-01 3.341511841098447899E+00
pair_coeff 7     41  2.177367888418141884E-01 3.341511841098447899E+00
pair_coeff 8     41  2.177367888418141884E-01 3.341511841098447899E+00
pair_coeff 9     41  2.177367888418141884E-01 3.341511841098447899E+00
pair_coeff 10     41  2.177367888418141884E-01 3.341511841098447899E+00
pair_coeff 11     41  2.177367888418141884E-01 3.341511841098447899E+00
pair_coeff 12      41  1.433735664130799115E-01 3.570551028367321855E+00
pair_coeff 13    41  2.276764142074000352E-02 4.861717010354688284E+00
pair_coeff 14    41  8.385328863556677781E-02 4.227062551711202154E+00
pair_coeff 15    41  1.744176359738121573E-01 3.806622052678410917E+00
pair_coeff 16    41  2.534887038728330655E-01 3.652727543314932213E+00
pair_coeff 17    41  3.059985559650827969E-01 3.634178042443301226E+00
pair_coeff 18   41  1.884537393671708305E-01 3.752157829525465615E+00
pair_coeff 19    41  1.929958963334948985E-01 3.649447990618651438E+00
pair_coeff 20     41  9.365952658314305457E-02 2.906754988123776862E+00
pair_coeff 21      41  0.000000000000000000E+00 0.000000000000000000E+00
pair_coeff 22    41  0.000000000000000000E+00 0.000000000000000000E+00
pair_coeff 23      41  3.758009242872520916E-01 3.431506915542800851E+00
pair_coeff 24   41  7.950888758614560459E-01 2.324959475233958628E+00
pair_coeff 25   41  7.950888758614560459E-01 2.324959475233958628E+00
pair_coeff 26     41  0.000000000000000000E+00 0.000000000000000000E+00
pair_coeff 27   41  5.858420401700457081E-01 2.446364943686976545E+00
pair_coeff 28   41  1.522088994832513364E-01 2.623398911666701139E+00
pair_coeff 29   41  1.938116246035951340E-01 3.164577152551757422E+00
pair_coeff 30     41  2.717254484239552959E-01 3.484088802129798879E+00
pair_coeff 31      41  1.838060876086547446E-01 3.235194132478707463E+00
pair_coeff 32     41  3.050217950885778517E-01 3.514595987837878077E+00
pair_coeff 33     41  4.651682231981815185E-01 3.605090320820125260E+00
pair_coeff 34   41  2.745508205934842905E-01 3.580536933298883895E+00
pair_coeff 35   41  2.018809144184158522E-01 3.363000088017528810E+00
pair_coeff 36    41  3.975059030310198332E-02 3.333348173589975261E+00
pair_coeff 37    41  2.242149373793861367E-01 3.818445878690444051E+00
pair_coeff 38   41  1.776054487496074863E-01 3.479086156840626831E+00
pair_coeff 39  41  3.047290431444037995E-01 3.499464919472758506E+00
pair_coeff 40   41  7.825038462692963936E-02 2.799944545168011611E+00
pair_coeff 41  41  3.100376933831125448E-01 3.559954315729227936E+00
pair_coeff 1      42  2.517150719017874350E-01 3.216286733597559344E+00
pair_coeff 2     42  2.923180488930291476E-01 3.137114409660223480E+00
pair_coeff 3     42  2.288318835470794788E-01 3.267785491497223305E+00
pair_coeff 4     42  2.288318835470794788E-01 3.267785491497223305E+00
pair_coeff 5     42  1.794601723072659361E-01 3.444501654585188533E+00
pair_coeff 6      42  1.780229229119614787E-01 3.428592407594721170E+00
pair_coeff 7     42  1.780229229119614787E-01 3.428592407594721170E+00
pair_coeff 8     42  1.780229229119614787E-01 3.428592407594721170E+00
pair_coeff 9     42  1.780229229119614787E-01 3.428592407594721170E+00
pair_coeff 10     42  1.780229229119614787E-01 3.428592407594721170E+00
pair_coeff 11     42  1.780229229119614787E-01 3.428592407594721170E+00
pair_coeff 12      42  1.172230999498745652E-01 3.663600408719620116E+00
pair_coeff 13    42  1.861496210673063006E-02 4.988414472922134912E+00
pair_coeff 14    42  6.855895881485152277E-02 4.337220773235620719E+00
pair_coeff 15    42  1.426049200441300291E-01 3.905823498176049124E+00
pair_coeff 16    42  2.072539060975635561E-01 3.747918462531858008E+00
pair_coeff 17    42  2.501862805523388245E-01 3.728885557404626905E+00
pair_coeff 18   42  1.540809235512614617E-01 3.849939924851243589E+00
pair_coeff 19    42  1.577946187139902257E-01 3.744553443938634096E+00
pair_coeff 20     42  7.657659860592054557E-02 2.982505691119483604E+00
pair_coeff 21      42  0.000000000000000000E+00 0.000000000000000000E+00
pair_coeff 22    42  0.000000000000000000E+00 0.000000000000000000E+00
pair_coeff 23      42  3.072571214561132247E-01 3.520932774360979955E+00
pair_coeff 24   42  6.500695009260647472E-01 2.385548453460561547E+00
pair_coeff 25   42  6.500695009260647472E-01 2.385548453460561547E+00
pair_coeff 26     42  0.000000000000000000E+00 0.000000000000000000E+00
pair_coeff 27   42  4.789880153488779158E-01 2.510117776321816319E+00
pair_coeff 28   42  1.244469220077783211E-01 2.691765290191502125E+00
pair_coeff 29   42  1.584615631091823018E-01 3.247046760402909182E+00
pair_coeff 30     42  2.221643793651205678E-01 3.574884956996347896E+00
pair_coeff 31      42  1.502809752047785663E-01 3.319504035055336644E+00
pair_coeff 32     42  2.493876749186909880E-01 3.606187166974876845E+00
pair_coeff 33     42  3.803243686103310317E-01 3.699039803071263677E+00
pair_coeff 34   42  2.244744208358758208E-01 3.673846548628572073E+00
pair_coeff 35   42  1.650590635421556873E-01 3.450640643166755339E+00
pair_coeff 36    42  3.250032440946476475E-02 3.420215993034873669E+00
pair_coeff 37    42  1.833194965587523484E-01 3.917955455811204413E+00
pair_coeff 38   42  1.452112951590650569E-01 3.569751941621275737E+00
pair_coeff 39  42  2.491483191485096838E-01 3.590661779490871286E+00
pair_coeff 40   42  6.397799041847561374E-02 2.872911743474042101E+00
pair_coeff 41  42  2.534887038728330655E-01 3.652727543314932213E+00
pair_coeff 42  42  2.072539060975635561E-01 3.747918462531858008E+00
pair_coeff 1      43  3.540045720962458620E-01 2.694267436109534231E+00
pair_coeff 2     43  4.111073883361350823E-01 2.627945173235017418E+00
pair_coeff 3     43  2.223108962183115156E-01 2.911490578234520399E+00
pair_coeff 4     43  3.218223382693144452E-01 2.737407690042663599E+00
pair_coeff 5     43  1.944751755089789147E-01 3.013558317663839858E+00
pair_coeff 6      43  1.512164790871689257E-01 3.123905428815852758E+00
pair_coeff 7     43  1.305838306072752142E-01 3.201224736341582222E+00
pair_coeff 8     43  9.576715086909036445E-02 3.371022389085928772E+00
pair_coeff 9     43  1.595945784173651294E-01 3.095955496253500083E+00
pair_coeff 10     43  1.367847387646038970E-01 3.176567760880071756E+00
pair_coeff 11     43  1.480915417673231704E-01 3.134796518078508232E+00
pair_coeff 12      43  1.648590726968548470E-01 3.068979881992677683E+00
pair_coeff 13    43  2.617952769134209573E-02 4.178770049266796960E+00
pair_coeff 14    43  9.641927555329404820E-02 3.633268318548095621E+00
pair_coeff 15    43  2.005553077041754007E-01 3.271888962013142610E+00
pair_coeff 16    43  2.914757141438480414E-01 3.139612697248032713E+00
pair_coeff 17    43  3.518545255241552483E-01 3.123668927072572821E+00
pair_coeff 18   43  2.166948168731066826E-01 3.225075569957748023E+00
pair_coeff 19    43  2.219176470240586396E-01 3.136793837871186597E+00
pair_coeff 20     43  1.076950451050141949E-01 2.498430216949698135E+00
pair_coeff 21      43  0.000000000000000000E+00 0.000000000000000000E+00
pair_coeff 22    43  0.000000000000000000E+00 0.000000000000000000E+00
pair_coeff 23      43  4.321172545720066149E-01 2.949467912669808012E+00
pair_coeff 24   43  2.241432820636522216E-01 2.525979396632042295E+00
pair_coeff 25   43  1.232760656668827753E-01 2.790643100279648792E+00
pair_coeff 26     43  0.000000000000000000E+00 0.000000000000000000E+00
pair_coeff 27   43  5.190637964627597967E-01 2.196075677037649054E+00
pair_coeff 28   43  1.348590981935383903E-01 2.354997178955427373E+00
pair_coeff 29   43  1.717196629251071804E-01 2.840807104746190692E+00
pair_coeff 30     43  3.124453591831943267E-01 2.994663388329067644E+00
pair_coeff 31      43  2.113506828162100282E-01 2.780732057331203322E+00
pair_coeff 32     43  3.507313903718691228E-01 3.020885094292788509E+00
pair_coeff 33     43  5.348768524286334758E-01 3.098667286775234508E+00
pair_coeff 34   43  3.156941326324790298E-01 3.077563022548567950E+00
pair_coeff 35   43  1.788691604327004581E-01 3.018929254291899511E+00
pair_coeff 36    43  3.521954878549677509E-02 2.992311047462213214E+00
pair_coeff 37    43  2.578150741863444728E-01 3.282051842720017820E+00
pair_coeff 38   43  2.042208359552802888E-01 2.990363486821641992E+00
pair_coeff 39  43  3.503947675532131378E-01 3.007879554241217335E+00
pair_coeff 40   43  8.997673818477992802E-02 2.406623910860338000E+00
pair_coeff 41  43  3.564989552184898436E-01 3.059871736599097503E+00
pair_coeff 42  43  2.914757141438480414E-01 3.139612697248032713E+00
pair_coeff 43  43  4.099227538595709985E-01 2.630037976349726581E+00
pair_coeff 1      44   1.289710283612314212E-01 3.227417274371960687E+00
pair_coeff 2     44   1.497747397064584929E-01 3.147970960317207023E+00
pair_coeff 3     44   1.172463894193012807E-01 3.279094253018750571E+00
pair_coeff 4     44   1.172463894193012807E-01 3.279094253018750571E+00
pair_coeff 5     44   9.194984947656417718E-02 3.456421974285966314E+00
pair_coeff 6      44   9.121344727734942426E-02 3.440457670474703633E+00
pair_coeff 7     44   9.121344727734942426E-02 3.440457670474703633E+00
pair_coeff 8     44   9.121344727734942426E-02 3.440457670474703633E+00
pair_coeff 9     44   9.121344727734942426E-02 3.440457670474703633E+00
pair_coeff 10     44   9.121344727734942426E-02 3.440457670474703633E+00
pair_coeff 11     44   9.121344727734942426E-02 3.440457670474703633E+00
pair_coeff 12      44   6.006149585721085732E-02 3.676278959205930619E+00
pair_coeff 13    44   9.537731641064108729E-03 5.005677781603687038E+00
pair_coeff 14    44   3.512749298213131699E-02 4.352230508580356094E+00
pair_coeff 15    44   7.306635652965057237E-02 3.919340305384166889E+00
pair_coeff 16    44   1.061905002323981356E-01 3.760888810862612175E+00
pair_coeff 17    44   1.281877228920814960E-01 3.741790038931789741E+00
pair_coeff 18   44   7.894630627842579018E-02 3.863263336867006181E+00
pair_coeff 19    44   8.084908897847854770E-02 3.757512147015167780E+00
pair_coeff 20     44   3.923548397794881376E-02 2.992827190399418136E+00
pair_coeff 21      44   0.000000000000000000E+00 0.000000000000000000E+00
pair_coeff 22    44   0.000000000000000000E+00 0.000000000000000000E+00
pair_coeff 23      44   1.574290590790217992E-01 3.533117597747393646E+00
pair_coeff 24   44   3.330755342032887256E-01 2.393804074470089471E+00
pair_coeff 25   44   3.330755342032887256E-01 2.393804074470089471E+00
pair_coeff 26     44   0.000000000000000000E+00 0.000000000000000000E+00
pair_coeff 27   44   2.454186650227814237E-01 2.518804491957598035E+00
pair_coeff 28   44   6.376275916443908953E-02 2.701080629836012825E+00
pair_coeff 29   44   8.119081068730508999E-02 3.258283751802188988E+00
pair_coeff 30     44   1.138301662092522648E-01 3.587256491649024159E+00
pair_coeff 31      44   7.699933011103650415E-02 3.330991777931932241E+00
pair_coeff 32     44   1.277785420311642051E-01 3.618667028575163869E+00
pair_coeff 33     44   1.948664597630800355E-01 3.711840997978461676E+00
pair_coeff 34   44   1.150137601108388863E-01 3.686560557731444199E+00
pair_coeff 35   44   8.457116613851239917E-02 3.462582207945594348E+00
pair_coeff 36    44   1.665216242115909184E-02 3.432052267820347335E+00
pair_coeff 37    44   9.392724802379077975E-02 3.931514247848511001E+00
pair_coeff 38   44   7.440178263794279545E-02 3.582105712547747789E+00
pair_coeff 39  44   1.276559035272747666E-01 3.603087912685470684E+00
pair_coeff 40   44   3.278034626379167787E-02 2.882853973116679569E+00
pair_coeff 41  44   1.298797826027309477E-01 3.665368466287981519E+00
pair_coeff 42  44   1.061905002323981356E-01 3.760888810862612175E+00
pair_coeff 43  44   1.493431533973610947E-01 3.150477893680148966E+00
pair_coeff 44   44   5.440873251526867627E-02 3.773904045424884668E+00
pair_coeff 1      45  2.876124418215142975E-01 3.084725325848334254E+00
pair_coeff 2     45  3.340058550940822601E-01 3.008791526102005953E+00
pair_coeff 3     45  2.614658562013765786E-01 3.134117539883036763E+00
pair_coeff 4     45  2.614658562013765786E-01 3.134117539883036763E+00
pair_coeff 5     45  2.050531896125046272E-01 3.303605172335025486E+00
pair_coeff 6      45  2.034109724621096793E-01 3.288346689130147382E+00
pair_coeff 7     45  2.034109724621096793E-01 3.288346689130147382E+00
pair_coeff 8     45  2.034109724621096793E-01 3.288346689130147382E+00
pair_coeff 9     45  2.034109724621096793E-01 3.288346689130147382E+00
pair_coeff 10     45  2.034109724621096793E-01 3.288346689130147382E+00
pair_coeff 11     45  2.034109724621096793E-01 3.288346689130147382E+00
pair_coeff 12      45  1.339404182663543053E-01 3.513741746503062924E+00
pair_coeff 13    45  2.126966281947830981E-02 4.784364621384128213E+00
pair_coeff 14    45  7.833622915187883617E-02 4.159807837788846996E+00
pair_coeff 15    45  1.629419683127158180E-01 3.746056760816388831E+00
pair_coeff 16    45  2.368106190837268310E-01 3.594610791325419719E+00
pair_coeff 17    45  2.858656278157876152E-01 3.576356422441845595E+00
pair_coeff 18   45  1.760545776058381751E-01 3.692459091139371985E+00
pair_coeff 19    45  1.802978870185932558E-01 3.591383417979618908E+00
pair_coeff 20     45  8.749727358411062139E-02 2.860507038684394931E+00
pair_coeff 21      45  0.000000000000000000E+00 0.000000000000000000E+00
pair_coeff 22    45  0.000000000000000000E+00 0.000000000000000000E+00
pair_coeff 23      45  3.510754056218069463E-01 3.376909896193278637E+00
pair_coeff 24   45  7.427766446499820541E-01 2.287968188146278781E+00
pair_coeff 25   45  7.427766446499820541E-01 2.287968188146278781E+00
pair_coeff 26     45  0.000000000000000000E+00 0.000000000000000000E+00
pair_coeff 27   45  5.472970357193517321E-01 2.407442033882686516E+00
pair_coeff 28   45  1.421944377243884450E-01 2.581659301440933696E+00
pair_coeff 29   45  1.810599451051872477E-01 3.114227121418688515E+00
pair_coeff 30     45  2.538474917381768337E-01 3.428655178235952672E+00
pair_coeff 31      45  1.717127143456437521E-01 3.183720549298572955E+00
pair_coeff 32     45  2.849531321332268163E-01 3.458676979111828587E+00
pair_coeff 33     45  4.345628551909777593E-01 3.547731501255731335E+00
pair_coeff 34   45  2.564869708249599145E-01 3.523568770611071432E+00
pair_coeff 35   45  1.885983225059109647E-01 3.309493047117717079E+00
pair_coeff 36    45  3.713523227979241559E-02 3.280312909721536219E+00
pair_coeff 37    45  2.094628964423923267E-01 3.757692463746214351E+00
pair_coeff 38   45  1.659200415184466093E-01 3.423732127576304407E+00
pair_coeff 39  45  2.846796415670648783E-01 3.443786653735909642E+00
pair_coeff 40   45  7.310196369278490480E-02 2.755396004170551638E+00
pair_coeff 41  45  2.896390134456565679E-01 3.503313632949622392E+00
pair_coeff 42  45  2.368106190837268310E-01 3.594610791325419719E+00
pair_coeff 43  45  3.330433940375682744E-01 3.011187621858291141E+00
pair_coeff 44   45  1.213344470767514366E-01 3.607050590788261513E+00
pair_coeff 45  45  2.705824481996443320E-01 3.447574132224956678E+00
pair_coeff 1      46   1.591939588900956049E-01 2.914305969007454422E+00
pair_coeff 2     46   1.848727893277152534E-01 2.842567223260527687E+00
pair_coeff 3     46   1.297424277832890105E-01 3.015383630983031082E+00
pair_coeff 4     46   1.447217808091778302E-01 2.960969450834395111E+00
pair_coeff 5     46   1.134972772065044738E-01 3.121093535396749274E+00
pair_coeff 6      46   8.825115390810175930E-02 3.235378250992776650E+00
pair_coeff 7     46   7.620977424152966528E-02 3.315456605363892528E+00
pair_coeff 8     46   5.589047980555466449E-02 3.491313283895585595E+00
pair_coeff 9     46   9.314068008877877947E-02 3.206430958576428125E+00
pair_coeff 10     46   7.982867413568051074E-02 3.289919775276922032E+00
pair_coeff 11     46   8.642741534447667684E-02 3.246657975726112255E+00
pair_coeff 12      46   7.413624147890124361E-02 3.319620862051439580E+00
pair_coeff 13    46   1.177279330145077942E-02 4.520046649590542032E+00
pair_coeff 14    46   4.335923148605760197E-02 3.929994255893134447E+00
pair_coeff 15    46   9.018864705840204388E-02 3.539101354278793465E+00
pair_coeff 16    46   1.310750665736078457E-01 3.396022199330606561E+00
pair_coeff 17    46   1.582270944691577808E-01 3.378776314988137131E+00
pair_coeff 18   46   9.744649783680001121E-02 3.488464752259239798E+00
pair_coeff 19    46   9.979517656548757276E-02 3.392973126102896142E+00
pair_coeff 20     46   4.842988462435294378E-02 2.702474890510119909E+00
pair_coeff 21      46   0.000000000000000000E+00 0.000000000000000000E+00
pair_coeff 22    46   0.000000000000000000E+00 0.000000000000000000E+00
pair_coeff 23      46   1.943208135778947410E-01 3.190348451711801925E+00
pair_coeff 24   46   1.308118229063097715E-01 2.616115944782948066E+00
pair_coeff 25   46   7.194490382282986429E-02 2.890223855576281586E+00
pair_coeff 26     46   0.000000000000000000E+00 0.000000000000000000E+00
pair_coeff 27   46   3.029298080889223921E-01 2.274440006244081047E+00
pair_coeff 28   46   7.870485480438377257E-02 2.439032431538718626E+00
pair_coeff 29   46   1.002169769679346900E-01 2.942177902435911818E+00
pair_coeff 30     46   1.405050035672634479E-01 3.239235003477465291E+00
pair_coeff 31      46   9.504326939170110178E-02 3.007832082398090190E+00
pair_coeff 32     46   1.577220266102814239E-01 3.267598213893569081E+00
pair_coeff 33     46   2.405312540247006858E-01 3.351732811965022041E+00
pair_coeff 34   46   1.419659595765774829E-01 3.328904980405696268E+00
pair_coeff 35   46   1.043894812394069449E-01 3.126656127462947410E+00
pair_coeff 36    46   2.055441205353729026E-02 3.099088081816367968E+00
pair_coeff 37    46   1.159380571788471426E-01 3.550094228820277475E+00
pair_coeff 38   46   9.183701546862199638E-02 3.234583932666422079E+00
pair_coeff 39  46   1.575706491327610870E-01 3.253530522433367267E+00
pair_coeff 40   46   4.046205695828821586E-02 2.603170841386070578E+00
pair_coeff 41  46   1.603156696122686187E-01 3.309768862160356484E+00
pair_coeff 42  46   1.310750665736078457E-01 3.396022199330606561E+00
pair_coeff 43  46   1.843400655522983711E-01 2.844830943827911796E+00
pair_coeff 44   46   6.715881572284602974E-02 3.407774747126039561E+00
pair_coeff 45  46   1.497678294522704623E-01 3.257108757122733511E+00
pair_coeff 46   46   8.289673956344170702E-02 3.077165870507050371E+00
pair_coeff 1      47   1.722085049816445279E-01 3.045791995942584762E+00
pair_coeff 2     47   1.999866507741778487E-01 2.970816581583684446E+00
pair_coeff 3     47   1.565531863469495633E-01 3.094560814646859725E+00
pair_coeff 4     47   1.565531863469495633E-01 3.094560814646859725E+00
pair_coeff 5     47   1.227759932819626476E-01 3.261909288109908545E+00
pair_coeff 6      47   1.217927125916918318E-01 3.246843387225244904E+00
pair_coeff 7     47   1.217927125916918318E-01 3.246843387225244904E+00
pair_coeff 8     47   1.217927125916918318E-01 3.246843387225244904E+00
pair_coeff 9     47   1.217927125916918318E-01 3.246843387225244904E+00
pair_coeff 10     47   1.217927125916918318E-01 3.246843387225244904E+00
pair_coeff 11     47   1.217927125916918318E-01 3.246843387225244904E+00
pair_coeff 12      47   8.019708410451541203E-02 3.469393659665676477E+00
pair_coeff 13    47   1.273525168942131643E-02 4.723979586569880595E+00
pair_coeff 14    47   4.690396848866595220E-02 4.107305538950095425E+00
pair_coeff 15    47   9.756181820295757590E-02 3.698776550000724583E+00
pair_coeff 16    47   1.417908155082314992E-01 3.549242029754096084E+00
pair_coeff 17    47   1.711625967222450972E-01 3.531218055246321708E+00
pair_coeff 18   47   1.054130183404619059E-01 3.645855354088885392E+00
pair_coeff 19    47   1.079537080460851450E-01 3.546055390145638864E+00
pair_coeff 20     47   5.238916153439685669E-02 2.824403641308426582E+00
pair_coeff 21      47   0.000000000000000000E+00 0.000000000000000000E+00
pair_coeff 22    47   0.000000000000000000E+00 0.000000000000000000E+00
pair_coeff 23      47   2.102070771175983122E-01 3.334288809009665400E+00
pair_coeff 24   47   4.447389504444150266E-01 2.259090991354548272E+00
pair_coeff 25   47   4.447389504444150266E-01 2.259090991354548272E+00
pair_coeff 26     47   0.000000000000000000E+00 0.000000000000000000E+00
pair_coeff 27   47   3.276951570843523731E-01 2.377056918505081384E+00
pair_coeff 28   47   8.513919419528666321E-02 2.549075332798732774E+00
pair_coeff 29   47   1.084099917971301230E-01 3.074921439676577162E+00
pair_coeff 30     47   1.519916759119208927E-01 3.385380996878945226E+00
pair_coeff 31      47   1.028133193283557872E-01 3.143537768214339501E+00
pair_coeff 32     47   1.706162381700878361E-01 3.415023882760973351E+00
pair_coeff 33     47   2.601953487792239561E-01 3.502954418577414852E+00
pair_coeff 34   47   1.535720691125297410E-01 3.479096653679860207E+00
pair_coeff 35   47   1.129236098240292002E-01 3.267722850094167519E+00
pair_coeff 36    47   2.223479204358534689E-02 3.238911004781051872E+00
pair_coeff 37    47   1.254163137624429714E-01 3.710265394908199177E+00
pair_coeff 38   47   9.934494528618387221E-02 3.380520081656078979E+00
pair_coeff 39  47   1.704524851654297402E-01 3.400321493064580203E+00
pair_coeff 40   47   4.376994193654968474E-02 2.720619247630047699E+00
pair_coeff 41  47   1.734219186553421499E-01 3.459097162753066002E+00
pair_coeff 42  47   1.417908155082314992E-01 3.549242029754096084E+00
pair_coeff 43  47   1.994103753578723159E-01 2.973182435429682080E+00
pair_coeff 44   47   7.264923450991972453E-02 3.561524822428556725E+00
pair_coeff 45  47   1.620117634119973837E-01 3.404061168545596594E+00
pair_coeff 46   47   8.967377711819192465E-02 3.215999719401493095E+00
pair_coeff 47   47   9.700485622222822235E-02 3.361097396249958624E+00
pair_coeff 1      48  1.891372059020736129E-01 3.289260052245521315E+00
pair_coeff 2     48  2.196460409964854366E-01 3.208291412338459381E+00
pair_coeff 3     48  1.719429144564305345E-01 3.341927249274361689E+00
pair_coeff 4     48  1.719429144564305345E-01 3.341927249274361689E+00
pair_coeff 5     48  1.348453046710865466E-01 3.522652869835305456E+00
pair_coeff 6      48  1.337653640351980922E-01 3.506382662940996653E+00
pair_coeff 7     48  1.337653640351980922E-01 3.506382662940996653E+00
pair_coeff 8     48  1.337653640351980922E-01 3.506382662940996653E+00
pair_coeff 9     48  1.337653640351980922E-01 3.506382662940996653E+00
pair_coeff 10     48  1.337653640351980922E-01 3.506382662940996653E+00
pair_coeff 11     48  1.337653640351980922E-01 3.506382662940996653E+00
pair_coeff 12      48  8.808073916348332921E-02 3.746722686727856910E+00
pair_coeff 13    48  1.398717166294168902E-02 5.101595040773273304E+00
pair_coeff 14    48  5.151479334084436285E-02 4.435626611939518682E+00
pair_coeff 15    48  1.071524876172654656E-01 3.994441499717314326E+00
pair_coeff 16    48  1.557293507115795339E-01 3.832953806357374926E+00
pair_coeff 17    48  1.879884811870324024E-01 3.813489069628770434E+00
pair_coeff 18   48  1.157754883055521766E-01 3.937290001564532460E+00
pair_coeff 19    48  1.185659367333865843E-01 3.829512439915094824E+00
pair_coeff 20     48  5.753920012965894198E-02 3.050174825184523542E+00
pair_coeff 21      48  0.000000000000000000E+00 0.000000000000000000E+00
pair_coeff 22    48  0.000000000000000000E+00 0.000000000000000000E+00
pair_coeff 23      48  2.308711711486143847E-01 3.600818111261308019E+00
pair_coeff 24   48  4.884583514144283378E-01 2.439673412415888976E+00
pair_coeff 25   48  4.884583514144283378E-01 2.439673412415888976E+00
pair_coeff 26     48  0.000000000000000000E+00 0.000000000000000000E+00
pair_coeff 27   48  3.599087420518621294E-01 2.567069049484753673E+00
pair_coeff 28   48  9.350867603529200434E-02 2.752837906695117631E+00
pair_coeff 29   48  1.190670747798516088E-01 3.320717983629539294E+00
pair_coeff 30     48  1.669329915233766226E-01 3.655994398008439283E+00
pair_coeff 31      48  1.129202297491380125E-01 3.394819218609366196E+00
pair_coeff 32     48  1.873884136701188530E-01 3.688006813989214816E+00
pair_coeff 33     48  2.857734654979058875E-01 3.782966154357451316E+00
pair_coeff 34   48  1.686687429267214045E-01 3.757201298084295260E+00
pair_coeff 35   48  1.240243973128351274E-01 3.528931143998987441E+00
pair_coeff 36    48  2.442055020096505283E-02 3.497816198544354993E+00
pair_coeff 37    48  1.377451779288986211E-01 4.006848715525531901E+00
pair_coeff 38   48  1.091109023559897889E-01 3.650744921261102061E+00
pair_coeff 39  48  1.872085631699220987E-01 3.672129175869041973E+00
pair_coeff 40   48  4.807268097041665633E-02 2.938094334912183747E+00
pair_coeff 41  48  1.904699024019997078E-01 3.735603130297924235E+00
pair_coeff 42  48  1.557293507115795339E-01 3.832953806357374926E+00
pair_coeff 43  48  2.190131156825951553E-01 3.210846382788003606E+00
pair_coeff 44   48  7.979090944198904967E-02 3.846218434844132616E+00
pair_coeff 45  48  1.779380888201725353E-01 3.676167785591720083E+00
pair_coeff 46   48  9.848902438719817076E-02 3.473073479460133228E+00
pair_coeff 47   48  1.065407743175067756E-01 3.629769666450928245E+00
pair_coeff 48  48  1.170141066563726712E-01 3.919918490367800601E+00
pair_coeff 1      49   2.491558874764578380E-01 2.855793572536012626E+00
pair_coeff 2     49   2.893460544378792521E-01 2.785495171755656862E+00
pair_coeff 3     49   2.030610329881481768E-01 2.954841833242532800E+00
pair_coeff 4     49   2.265053522513252593E-01 2.901520161607548776E+00
pair_coeff 5     49   1.776356026680076250E-01 3.058429331874637391E+00
pair_coeff 6      49   1.762129657718276565E-01 3.044303251377937780E+00
pair_coeff 7     49   1.192765986091082336E-01 3.248890049401691016E+00
pair_coeff 8     49   1.762129657718276565E-01 3.044303251377937780E+00
pair_coeff 9     49   1.457753106303604218E-01 3.142053380689358466E+00
pair_coeff 10     49   1.762129657718276565E-01 3.044303251377937780E+00
pair_coeff 11     49   1.762129657718276565E-01 3.044303251377937780E+00
pair_coeff 12      49   1.160312939550487005E-01 3.252970697627771912E+00
pair_coeff 13    49   1.842570398745426927E-02 4.429294764084048097E+00
pair_coeff 14    49   6.786192061888589311E-02 3.851089232029210496E+00
pair_coeff 15    49   1.411550573577402545E-01 3.468044538763741080E+00
pair_coeff 16    49   2.051467578661674285E-01 3.327838076089515873E+00
pair_coeff 17    49   2.476426393321955743E-01 3.310938448465757133E+00
pair_coeff 18   49   1.525143844607987631E-01 3.418424600390641999E+00
pair_coeff 19    49   1.561903225248004456E-01 3.324850221067261025E+00
pair_coeff 20     49   7.579804515254030817E-02 2.648215562927745292E+00
pair_coeff 21      49   0.000000000000000000E+00 0.000000000000000000E+00
pair_coeff 22    49   0.000000000000000000E+00 0.000000000000000000E+00
pair_coeff 23      49   3.041332416110918979E-01 3.126293772665116322E+00
pair_coeff 24   49   6.434602513106866262E-01 2.118167472197251655E+00
pair_coeff 25   49   6.434602513106866262E-01 2.118167472197251655E+00
pair_coeff 26     49   0.000000000000000000E+00 0.000000000000000000E+00
pair_coeff 27   49   4.741181493550025716E-01 2.228774610499382636E+00
pair_coeff 28   49   1.231816714918823885E-01 2.390062407746226469E+00
pair_coeff 29   49   1.568504861035088516E-01 2.883105903219756350E+00
pair_coeff 30     49   2.199056365125826029E-01 3.174198797669536276E+00
pair_coeff 31      49   1.487530701482332185E-01 2.947441901958409272E+00
pair_coeff 32     49   2.468521531134249269E-01 3.201992541656678348E+00
pair_coeff 33     49   3.764576148503470665E-01 3.284437915256962270E+00
pair_coeff 34   49   2.221921918165813414E-01 3.262068412762940017E+00
pair_coeff 35   49   1.633809098206280841E-01 3.063880240200058669E+00
pair_coeff 36    49   3.216989396118666994E-02 3.036865695947625898E+00
pair_coeff 37    49   1.814556892113898812E-01 3.478816702288478169E+00
pair_coeff 38   49   1.437349334849495619E-01 3.169641109400411327E+00
pair_coeff 39  49   2.466152308707815766E-01 3.188207296291331261E+00
pair_coeff 40   49   6.332752687886390730E-02 2.550905305106105025E+00
pair_coeff 41  49   2.509114869503538681E-01 3.243316502678857738E+00
pair_coeff 42  49   2.051467578661674285E-01 3.327838076089515873E+00
pair_coeff 43  49   2.223108962183115156E-01 2.911490578234520399E+00
pair_coeff 44   49   1.051108625600908064E-01 3.339354660419386889E+00
pair_coeff 45  49   2.344029680696937956E-01 3.191713688460029452E+00
pair_coeff 46   49   1.297424277832890105E-01 3.015383630983031082E+00
pair_coeff 47   49   1.403492298138912242E-01 3.151430023345263898E+00
pair_coeff 48  49   1.541460520799295686E-01 3.403342348080735658E+00
pair_coeff 49   49   2.030610329881481768E-01 2.954841833242532800E+00
pair_coeff 1      50  1.791876903161000734E-01 3.217141909372776443E+00
pair_coeff 2     50  2.080916157427709912E-01 3.137948534372799969E+00
pair_coeff 3     50  1.628979002873637005E-01 3.268654360233876233E+00
pair_coeff 4     50  1.628979002873637005E-01 3.268654360233876233E+00
pair_coeff 5     50  1.277518010205411225E-01 3.445417510233855118E+00
pair_coeff 6      50  1.267286703926965574E-01 3.429504033147082964E+00
pair_coeff 7     50  1.267286703926965574E-01 3.429504033147082964E+00
pair_coeff 8     50  1.267286703926965574E-01 3.429504033147082964E+00
pair_coeff 9     50  1.267286703926965574E-01 3.429504033147082964E+00
pair_coeff 10     50  1.267286703926965574E-01 3.429504033147082964E+00
pair_coeff 11     50  1.267286703926965574E-01 3.429504033147082964E+00
pair_coeff 12      50  8.344727382835046003E-02 3.664574520351796316E+00
pair_coeff 13    50  1.325137998303192385E-02 4.989740838251888633E+00
pair_coeff 14    50  4.880487047395847683E-02 4.338373993220113078E+00
pair_coeff 15    50  1.015157577071503781E-01 3.906862014301811126E+00
pair_coeff 16    50  1.475372470231036959E-01 3.748914993420465080E+00
pair_coeff 17    50  1.780993939784465407E-01 3.729877027650093879E+00
pair_coeff 18   50  1.096851475929681435E-01 3.850963582140682906E+00
pair_coeff 19    50  1.123288051765993917E-01 3.745549080105277095E+00
pair_coeff 20     50  5.451236484485043332E-02 2.983298707049888421E+00
pair_coeff 21      50  0.000000000000000000E+00 0.000000000000000000E+00
pair_coeff 22    50  0.000000000000000000E+00 0.000000000000000000E+00
pair_coeff 23      50  2.187262507204020268E-01 3.521868952215817750E+00
pair_coeff 24   50  4.627631215556714528E-01 2.386182744932990651E+00
pair_coeff 25   50  4.627631215556714528E-01 2.386182744932990651E+00
pair_coeff 26     50  0.000000000000000000E+00 0.000000000000000000E+00
pair_coeff 27   50  3.409758323607505748E-01 2.510785189426758102E+00
pair_coeff 28   50  8.858967543358814423E-02 2.692481001401170193E+00
pair_coeff 29   50  1.128035809810071233E-01 3.247910114935789849E+00
pair_coeff 30     50  1.581515231017961709E-01 3.575835480151661638E+00
pair_coeff 31      50  1.069800892014212690E-01 3.320386655192049563E+00
pair_coeff 32     50  1.775308928637313044E-01 3.607146013048481148E+00
pair_coeff 33     50  2.707404235563790063E-01 3.700023337654205324E+00
pair_coeff 34   50  1.597959657350944140E-01 3.674823384598274068E+00
pair_coeff 35   50  1.175001247974426788E-01 3.451558131105934013E+00
pair_coeff 36    50  2.313591324292333176E-02 3.421125391389411519E+00
pair_coeff 37    50  1.304991271682363063E-01 3.918997197692981160E+00
pair_coeff 38   50  1.033711505265553082E-01 3.570701099963447422E+00
pair_coeff 39  50  1.773605033542809684E-01 3.591616497532251984E+00
pair_coeff 40   50  4.554382956704794427E-02 2.873675619561858241E+00
pair_coeff 41  50  1.804502806487379984E-01 3.653698763970068875E+00
pair_coeff 42  50  1.475372470231036959E-01 3.748914993420465080E+00
pair_coeff 43  50  2.074919853073012854E-01 3.140447486228195473E+00
pair_coeff 44   50  7.559352853363882074E-02 3.761888790426231033E+00
pair_coeff 45  50  1.685776999976196511E-01 3.595566559366237147E+00
pair_coeff 46   50  9.330803380147963122E-02 3.396925164817679033E+00
pair_coeff 47   50  1.009362234330945657E-01 3.550185734733046772E+00
pair_coeff 48  50  1.108586087340911325E-01 3.833972947222050731E+00
pair_coeff 49   50  1.460372374214344571E-01 3.328722912157391800E+00
pair_coeff 50  50  1.050269192461420475E-01 3.749911789275832241E+00
pair_coeff 1      51  2.533852259367075921E-01 2.858274758416932571E+00
pair_coeff 2     51  2.942576076375654770E-01 2.787915280603157520E+00
pair_coeff 3     51  2.065079265987836976E-01 2.957409074764294044E+00
pair_coeff 4     51  2.303502053970068741E-01 2.904041075908715186E+00
pair_coeff 5     51  1.806509080412127821E-01 3.061086572842267373E+00
pair_coeff 6      51  1.404672559692889122E-01 3.173174020534739626E+00
pair_coeff 7     51  1.213012792659237393E-01 3.251712767470937848E+00
pair_coeff 8     51  8.895954313830781168E-02 3.424188379397632431E+00
pair_coeff 9     51  1.482497981251104935E-01 3.144783276351368784E+00
pair_coeff 10     51  1.270613958791100284E-01 3.226666915174094541E+00
pair_coeff 11     51  1.375644548126654931E-01 3.184236878323198461E+00
pair_coeff 12      51  1.180008866429317071E-01 3.255796961067685569E+00
pair_coeff 13    51  1.873847419457483343E-02 4.433143047705374151E+00
pair_coeff 14    51  6.901385418853510367E-02 3.854435156020554309E+00
pair_coeff 15    51  1.435511175872953848E-01 3.471057663811270455E+00
pair_coeff 16    51  2.086290559640636977E-01 3.330729386206531473E+00
pair_coeff 17    51  2.518462909076551459E-01 3.313815075757705841E+00
pair_coeff 18   51  1.551032654961799484E-01 3.421394614377313736E+00
pair_coeff 19    51  1.588416013882605060E-01 3.327738935260058373E+00
pair_coeff 20     51  7.708469180103937057E-02 2.650516399769581533E+00
pair_coeff 21      51  0.000000000000000000E+00 0.000000000000000000E+00
pair_coeff 22    51  0.000000000000000000E+00 0.000000000000000000E+00
pair_coeff 23      51  3.092958024031092212E-01 3.129009975979999414E+00
pair_coeff 24   51  2.082100572999197041E-01 2.565817813773293210E+00
pair_coeff 25   51  1.145129867819162373E-01 2.834655654012085524E+00
pair_coeff 26     51  0.000000000000000000E+00 0.000000000000000000E+00
pair_coeff 27   51  4.821661475142233755E-01 2.230711026404406550E+00
pair_coeff 28   51  1.252726394642434959E-01 2.392138954579879240E+00
pair_coeff 29   51  1.595129710245168642E-01 2.885610818746235928E+00
pair_coeff 30     51  2.236384616749672039E-01 3.176956622085050697E+00
pair_coeff 31      51  1.512781041220645495E-01 2.950002714232202727E+00
pair_coeff 32     51  2.510423864477937528E-01 3.204774513981840212E+00
pair_coeff 33     51  3.828478578635327034E-01 3.287291518213585562E+00
pair_coeff 34   51  2.259638304960239485E-01 3.264902580528488585E+00
pair_coeff 35   51  1.661542465158737936E-01 3.066542217055081565E+00
pair_coeff 36    51  3.271596722949368652E-02 3.039504201881492840E+00
pair_coeff 37    51  1.845358392852482765E-01 3.481839186464868341E+00
pair_coeff 38   51  1.461747862551426580E-01 3.172394973980771304E+00
pair_coeff 39  51  2.508014425287490301E-01 3.190977291645715308E+00
pair_coeff 40   51  6.440249062037527172E-02 2.553121596328082887E+00
pair_coeff 41  51  2.551706261287441935E-01 3.246134378309362578E+00
pair_coeff 42  51  2.086290559640636977E-01 3.330729386206531473E+00
pair_coeff 43  51  2.934096839152270930E-01 2.790135478285444393E+00
pair_coeff 44   51  1.068950845510619613E-01 3.342255976436936837E+00
pair_coeff 45  51  2.383818806215697028E-01 3.194486730256854035E+00
pair_coeff 46   51  1.319447624152647047E-01 3.018003472754054783E+00
pair_coeff 47   51  1.427316113884563031E-01 3.154168065672212862E+00
pair_coeff 48  51  1.567626301313670423E-01 3.406299258224103177E+00
pair_coeff 49   51  2.065079265987836976E-01 2.957409074764294044E+00
pair_coeff 50  51  1.485161710364928667E-01 3.331614991042423313E+00
pair_coeff 51  51  2.100133300839540085E-01 2.959978546770596353E+00
pair_coeff 1      52  2.017250681962091674E-01 3.056690580133286872E+00
pair_coeff 2     52  1.238182113317307792E-01 3.315741788485744745E+00
pair_coeff 3     52  1.857777726664354978E-01 3.098935224280011003E+00
pair_coeff 4     52  1.857777726664354978E-01 3.098935224280011003E+00
pair_coeff 5     52  1.625163928514463119E-01 3.207574185829374258E+00
pair_coeff 6      52  1.263665486179660624E-01 3.325025553250206656E+00
pair_coeff 7     52  1.091245350954258148E-01 3.407322754347013039E+00
pair_coeff 8     52  8.002940155303392422E-02 3.588052148088892501E+00
pair_coeff 9     52  1.333678457168430698E-01 3.295276176356722875E+00
pair_coeff 10     52  1.143064264267728281E-01 3.381078338392825344E+00
pair_coeff 11     52  1.237551431273730129E-01 3.336617821622679614E+00
pair_coeff 12      52  1.061554500800334505E-01 3.411602396114444158E+00
pair_coeff 13    52  1.685742555441499188E-02 4.645290116282322579E+00
pair_coeff 14    52  6.208594665318631356E-02 4.038888287934027765E+00
pair_coeff 15    52  1.291408389420262981E-01 3.637164351620559177E+00
pair_coeff 16    52  1.876859739423346884E-01 3.490120695691245611E+00
pair_coeff 17    52  2.265648769503596782E-01 3.472396954700678773E+00
pair_coeff 18   52  1.395333325541259217E-01 3.585124688068666021E+00
pair_coeff 19    52  1.428963982095136920E-01 3.486987137383879443E+00
pair_coeff 20     52  6.934659887074805240E-02 2.777356268994485955E+00
pair_coeff 21      52  0.000000000000000000E+00 0.000000000000000000E+00
pair_coeff 22    52  0.000000000000000000E+00 0.000000000000000000E+00
pair_coeff 23      52  2.782473593721414562E-01 3.278748048225554435E+00
pair_coeff 24   52  5.886930177039987333E-01 2.221460288218898071E+00
pair_coeff 25   52  5.886930177039987333E-01 2.221460288218898071E+00
pair_coeff 26     52  0.000000000000000000E+00 0.000000000000000000E+00
pair_coeff 27   52  4.337642356672424815E-01 2.337461203423603529E+00
pair_coeff 28   52  1.126972330748762380E-01 2.506614228980403869E+00
pair_coeff 29   52  1.435003728738950268E-01 3.023701078785963059E+00
pair_coeff 30     52  2.011886709474526580E-01 3.328989170351303706E+00
pair_coeff 31      52  9.673967369602196054E-02 3.272112746045770404E+00
pair_coeff 32     52  2.258416718780438259E-01 3.358138281240213630E+00
pair_coeff 33     52  3.444159431332070587E-01 3.444604118245261581E+00
pair_coeff 34   52  2.032806092440548607E-01 3.421143762957048029E+00
pair_coeff 35   52  1.494749685650599014E-01 3.213290908675224156E+00
pair_coeff 36    52  2.943179771656875832E-02 3.184958995335595677E+00
pair_coeff 37    52  1.660113379868037031E-01 3.648461821628244284E+00
pair_coeff 38   52  1.315011324637096746E-01 3.324209225597718920E+00
pair_coeff 39  52  2.256249149459740866E-01 3.343680795916493587E+00
pair_coeff 40   52  5.793749159503105983E-02 2.675300659027595618E+00
pair_coeff 41  52  2.295555011028669046E-01 3.401477412620344865E+00
pair_coeff 42  52  1.876859739423346884E-01 3.490120695691245611E+00
pair_coeff 43  52  2.033892102840210714E-01 3.053469937559857073E+00
pair_coeff 44   52  9.616449617195252375E-02 3.502198888317909375E+00
pair_coeff 45  52  2.144520820837692021E-01 3.347358177927088452E+00
pair_coeff 46   52  1.186995796250189389E-01 3.162429353626820649E+00
pair_coeff 47   52  1.284035983003997405E-01 3.305110072670552235E+00
pair_coeff 48  52  1.410261230297450152E-01 3.569306947024517562E+00
pair_coeff 49   52  1.857777726664354978E-01 3.098935224280011003E+00
pair_coeff 50  52  1.336074789696210519E-01 3.491048680948393823E+00
pair_coeff 51  52  1.889312886718397255E-01 3.101627657794223669E+00
pair_coeff 52  52  1.699655532576562489E-01 3.250055355330133011E+00
pair_coeff 1      53   2.517150719017874350E-01 3.216286733597559344E+00
pair_coeff 2     53   8.204532982457217460E-02 3.877013547662570669E+00
pair_coeff 3     53   2.288318835470794788E-01 3.267785491497223305E+00
pair_coeff 4     53   2.288318835470794788E-01 3.267785491497223305E+00
pair_coeff 5     53   1.794601723072659361E-01 3.444501654585188533E+00
pair_coeff 6      53   1.780229229119614787E-01 3.428592407594721170E+00
pair_coeff 7     53   1.780229229119614787E-01 3.428592407594721170E+00
pair_coeff 8     53   1.780229229119614787E-01 3.428592407594721170E+00
pair_coeff 9     53   1.780229229119614787E-01 3.428592407594721170E+00
pair_coeff 10     53   1.780229229119614787E-01 3.428592407594721170E+00
pair_coeff 11     53   1.780229229119614787E-01 3.428592407594721170E+00
pair_coeff 12      53   1.172230999498745652E-01 3.663600408719620116E+00
pair_coeff 13    53   1.861496210673063006E-02 4.988414472922134912E+00
pair_coeff 14    53   6.855895881485152277E-02 4.337220773235620719E+00
pair_coeff 15    53   1.426049200441300291E-01 3.905823498176049124E+00
pair_coeff 16    53   2.072539060975635561E-01 3.747918462531858008E+00
pair_coeff 17    53   2.501862805523388245E-01 3.728885557404626905E+00
pair_coeff 18   53   1.540809235512614617E-01 3.849939924851243589E+00
pair_coeff 19    53   1.577946187139902257E-01 3.744553443938634096E+00
pair_coeff 20     53   7.657659860592054557E-02 2.982505691119483604E+00
pair_coeff 21      53   0.000000000000000000E+00 0.000000000000000000E+00
pair_coeff 22    53   0.000000000000000000E+00 0.000000000000000000E+00
pair_coeff 23      53   3.072571214561132247E-01 3.520932774360979955E+00
pair_coeff 24   53   6.500695009260647472E-01 2.385548453460561547E+00
pair_coeff 25   53   6.500695009260647472E-01 2.385548453460561547E+00
pair_coeff 26     53   0.000000000000000000E+00 0.000000000000000000E+00
pair_coeff 27   53   4.789880153488779158E-01 2.510117776321816319E+00
pair_coeff 28   53   1.244469220077783211E-01 2.691765290191502125E+00
pair_coeff 29   53   1.584615631091823018E-01 3.247046760402909182E+00
pair_coeff 30     53   2.221643793651205678E-01 3.574884956996347896E+00
pair_coeff 31      53   1.502809752047785663E-01 3.319504035055336644E+00
pair_coeff 32     53   2.493876749186909880E-01 3.606187166974876845E+00
pair_coeff 33     53   3.803243686103310317E-01 3.699039803071263677E+00
pair_coeff 34   53   2.244744208358758208E-01 3.673846548628572073E+00
pair_coeff 35   53   1.650590635421556873E-01 3.450640643166755339E+00
pair_coeff 36    53   3.250032440946476475E-02 3.420215993034873669E+00
pair_coeff 37    53   1.833194965587523484E-01 3.917955455811204413E+00
pair_coeff 38   53   1.452112951590650569E-01 3.569751941621275737E+00
pair_coeff 39  53   2.491483191485096838E-01 3.590661779490871286E+00
pair_coeff 40   53   6.397799041847561374E-02 2.872911743474042101E+00
pair_coeff 41  53   2.534887038728330655E-01 3.652727543314932213E+00
pair_coeff 42  53   2.072539060975635561E-01 3.747918462531858008E+00
pair_coeff 43  53   2.914757141438480414E-01 3.139612697248032713E+00
pair_coeff 44   53   1.061905002323981356E-01 3.760888810862612175E+00
pair_coeff 45  53   2.368106190837268310E-01 3.594610791325419719E+00
pair_coeff 46   53   1.310750665736078457E-01 3.396022199330606561E+00
pair_coeff 47   53   1.417908155082314992E-01 3.549242029754096084E+00
pair_coeff 48  53   1.557293507115795339E-01 3.832953806357374926E+00
pair_coeff 49   53   2.051467578661674285E-01 3.327838076089515873E+00
pair_coeff 50  53   1.475372470231036959E-01 3.748914993420465080E+00
pair_coeff 51  53   2.086290559640636977E-01 3.330729386206531473E+00
pair_coeff 52  53   1.876859739423346884E-01 3.490120695691245611E+00
pair_coeff 53   53   2.072539060975635561E-01 3.747918462531858008E+00
pair_coeff 1      54      5.058019451083491935E-01 3.259627155281799471E+00
pair_coeff 2     54      5.873904832288343592E-01 3.179387960698472515E+00
pair_coeff 3     54      4.598199500984992416E-01 3.311819874282714959E+00
pair_coeff 4     54      4.598199500984992416E-01 3.311819874282714959E+00
pair_coeff 5     54      3.606113195236524960E-01 3.490917340301991079E+00
pair_coeff 6      54      3.577232781590320432E-01 3.474793711469867041E+00
pair_coeff 7     54      3.577232781590320432E-01 3.474793711469867041E+00
pair_coeff 8     54      3.577232781590320432E-01 3.474793711469867041E+00
pair_coeff 9     54      3.577232781590320432E-01 3.474793711469867041E+00
pair_coeff 10     54      3.577232781590320432E-01 3.474793711469867041E+00
pair_coeff 11     54      3.577232781590320432E-01 3.474793711469867041E+00
pair_coeff 12      54      2.355507420287134279E-01 3.712968515405449921E+00
pair_coeff 13    54      3.740532488009395973E-02 5.055634843709905013E+00
pair_coeff 14    54      1.377639187878478000E-01 4.395666114966524596E+00
pair_coeff 15    54      2.865535440344418872E-01 3.958455633136796159E+00
pair_coeff 16    54      4.164606753319582411E-01 3.798422780106363472E+00
pair_coeff 17    54      5.027299572755441481E-01 3.779133400913722962E+00
pair_coeff 18   54      3.096136844230243934E-01 3.901819012016897847E+00
pair_coeff 19    54      3.170760672777966915E-01 3.795012416885348738E+00
pair_coeff 20     54      1.538747450918169224E-01 3.022695843626246770E+00
pair_coeff 21      54      0.000000000000000000E+00 0.000000000000000000E+00
pair_coeff 22    54      0.000000000000000000E+00 0.000000000000000000E+00
pair_coeff 23      54      6.174093927181751873E-01 3.568378392181247971E+00
pair_coeff 24   54      1.306264323148313311E+00 2.417694429390239375E+00
pair_coeff 25   54      1.306264323148313311E+00 2.417694429390239375E+00
pair_coeff 26     54      0.000000000000000000E+00 0.000000000000000000E+00
pair_coeff 27   54      9.624893257944396874E-01 2.543942360979170036E+00
pair_coeff 28   54      2.500664530681778186E-01 2.728037629200720460E+00
pair_coeff 29   54      3.184162403942434882E-01 3.290801682610015710E+00
pair_coeff 30     54      4.464221167515604050E-01 3.623057596546916947E+00
pair_coeff 31      54      3.019779824746237074E-01 3.364235340619288195E+00
pair_coeff 32     54      5.011252210957767295E-01 3.654781613128054829E+00
pair_coeff 33     54      7.642323678189105740E-01 3.748885466151363310E+00
pair_coeff 34   54      4.510639662060295652E-01 3.723352725101418237E+00
pair_coeff 35   54      3.316734066284257043E-01 3.497139053583150137E+00
pair_coeff 36    54      6.530688519666234815E-02 3.466304422228967397E+00
pair_coeff 37    54      3.683663327553086675E-01 3.970751072514505431E+00
pair_coeff 38   54      2.917908529999159173E-01 3.617855412260831294E+00
pair_coeff 39  54      5.006442542104175830E-01 3.639047016423571534E+00
pair_coeff 40   54      1.285588175284727575E-01 2.911625084894475357E+00
pair_coeff 41  54      5.093659212107068956E-01 3.701949134901025840E+00
pair_coeff 42  54      4.164606753319582411E-01 3.798422780106363472E+00
pair_coeff 43  54      5.856978767776226391E-01 3.181919913455625970E+00
pair_coeff 44   54      2.133815872199037178E-01 3.811567907744004557E+00
pair_coeff 45  54      4.758526013158087542E-01 3.643049242368777918E+00
pair_coeff 46   54      2.633851963143667985E-01 3.441784609948579376E+00
pair_coeff 47   54      2.849176640107791147E-01 3.597069123222504494E+00
pair_coeff 48  54      3.129260711536197559E-01 3.884604000517125399E+00
pair_coeff 49   54      4.122265241306839467E-01 3.372681685338640545E+00
pair_coeff 50  54      2.964646731576463523E-01 3.799432739545504756E+00
pair_coeff 51  54      4.192239325022028562E-01 3.375611956720639295E+00
pair_coeff 52  54      3.771404309338606820E-01 3.537151111574271312E+00
pair_coeff 53   54      4.164606753319582411E-01 3.798422780106363472E+00
pair_coeff 54      54      8.368454779149256950E-01 3.849607658402551813E+00
pair_coeff 1      55  3.175870057215742226E-01 3.004156156701421221E+00
pair_coeff 2     55  3.688154752311860185E-01 2.930205652875953248E+00
pair_coeff 3     55  2.887154597468856720E-01 3.052258307853131569E+00
pair_coeff 4     55  2.887154597468856720E-01 3.052258307853131569E+00
pair_coeff 5     55  2.264235444414708642E-01 3.217319135230157112E+00
pair_coeff 6      55  2.246101777309229275E-01 3.202459184531222913E+00
pair_coeff 7     55  2.246101777309229275E-01 3.202459184531222913E+00
pair_coeff 8     55  2.246101777309229275E-01 3.202459184531222913E+00
pair_coeff 9     55  2.246101777309229275E-01 3.202459184531222913E+00
pair_coeff 10     55  2.246101777309229275E-01 3.202459184531222913E+00
pair_coeff 11     55  2.246101777309229275E-01 3.202459184531222913E+00
pair_coeff 12      55  1.478995001499436579E-01 3.421967204782814687E+00
pair_coeff 13    55  2.348635714353968298E-02 4.659402998639063931E+00
pair_coeff 14    55  8.650032070345334279E-02 4.051158857442665351E+00
pair_coeff 15    55  1.799235509252720133E-01 3.648214441350505322E+00
pair_coeff 16    55  2.614906885166861650E-01 3.500724051252714020E+00
pair_coeff 17    55  3.156581412186418856E-01 3.482946463663709302E+00
pair_coeff 18   55  1.944027379041995962E-01 3.596016675800414841E+00
pair_coeff 19    55  1.990882790519060419E-01 3.497580972864009485E+00
pair_coeff 20     55  9.661611629313200666E-02 2.785794170892084587E+00
pair_coeff 21      55  0.000000000000000000E+00 0.000000000000000000E+00
pair_coeff 22    55  0.000000000000000000E+00 0.000000000000000000E+00
pair_coeff 23      55  3.876639902911756530E-01 3.288709231343011297E+00
pair_coeff 24   55  8.201877811694162634E-01 2.228209319371530661E+00
pair_coeff 25   55  8.201877811694162634E-01 2.228209319371530661E+00
pair_coeff 26     55  0.000000000000000000E+00 0.000000000000000000E+00
pair_coeff 27   55  6.043355625145997445E-01 2.344562657617333290E+00
pair_coeff 28   55  1.570137418991634226E-01 2.514229587944387223E+00
pair_coeff 29   55  1.999297577597621556E-01 3.032887402253098053E+00
pair_coeff 30     55  2.803031200614393148E-01 3.339102991308009027E+00
pair_coeff 31      55  1.896083717657784939E-01 3.100565748673854038E+00
pair_coeff 32     55  3.146505465202936724E-01 3.368340660276711862E+00
pair_coeff 33     55  4.798523843539687084E-01 3.455069189633579008E+00
pair_coeff 34   55  2.832176819438365079E-01 3.431537559306359508E+00
pair_coeff 35   55  2.082537742436552652E-01 3.223053226084240830E+00
pair_coeff 36    55  4.100541392375962879E-02 3.194635237397348781E+00
pair_coeff 37    55  2.312928247109353463E-01 3.659546234266159548E+00
pair_coeff 38   55  1.832119947291552531E-01 3.334308524577047184E+00
pair_coeff 39  55  3.143485531522378085E-01 3.353839251584496139E+00
pair_coeff 40   55  8.072054746493292909E-02 2.683428505195357694E+00
pair_coeff 41  55  3.198247837881820765E-01 3.411811460518701100E+00
pair_coeff 42  55  2.614906885166861650E-01 3.500724051252714020E+00
pair_coeff 43  55  3.677527078379324021E-01 2.932539165606559806E+00
pair_coeff 44   55  1.339797523846405214E-01 3.512838938705180603E+00
pair_coeff 45  55  2.987821701324951396E-01 3.357527805870319515E+00
pair_coeff 46   55  1.653764218541119713E-01 3.172037148255793415E+00
pair_coeff 47   55  1.788964013789737795E-01 3.315151346404604737E+00
pair_coeff 48  55  1.964825460064327234E-01 3.580150878787119240E+00
pair_coeff 49   55  2.588321155025055109E-01 3.108350117033022997E+00
pair_coeff 50  55  1.861466306346315491E-01 3.501654855827156965E+00
pair_coeff 51  55  2.632257047206049139E-01 3.111050730444828272E+00
pair_coeff 52  55  2.368019762580622356E-01 3.259929367013902457E+00
pair_coeff 53   55  2.614906885166861650E-01 3.500724051252714020E+00
pair_coeff 54      55  5.254452897086219210E-01 3.547897350510067938E+00
pair_coeff 55  55  3.299208273968177729E-01 3.269833376988799500E+00
pair_coeff 1      56      1.423703976828447626E-01 3.143928959384971744E+00
pair_coeff 2     56      1.653354984123153737E-01 3.066537799135407028E+00
pair_coeff 3     56      1.294276342571315797E-01 3.194269134171567437E+00
pair_coeff 4     56      1.294276342571315797E-01 3.194269134171567437E+00
pair_coeff 5     56      1.015029251390483361E-01 3.367009660356621747E+00
pair_coeff 6      56      1.006900148654086141E-01 3.351458328501519368E+00
pair_coeff 7     56      1.006900148654086141E-01 3.351458328501519368E+00
pair_coeff 8     56      1.006900148654086141E-01 3.351458328501519368E+00
pair_coeff 9     56      1.006900148654086141E-01 3.351458328501519368E+00
pair_coeff 10     56      1.006900148654086141E-01 3.351458328501519368E+00
pair_coeff 11     56      1.006900148654086141E-01 3.351458328501519368E+00
pair_coeff 12      56      6.630154972997068241E-02 3.581179283634555510E+00
pair_coeff 13    56      1.052864867392752299E-02 4.876188605638604123E+00
pair_coeff 14    56      3.877704325548127218E-02 4.239645007324696735E+00
pair_coeff 15    56      8.065754277175206377E-02 3.817953007077415251E+00
pair_coeff 16    56      1.172230999498745652E-01 3.663600408719620116E+00
pair_coeff 17    56      1.415057111515590771E-01 3.644995692608442361E+00
pair_coeff 18   56      8.714838644978782634E-02 3.763326663382849269E+00
pair_coeff 19    56      8.924885764206048899E-02 3.660311093966183371E+00
pair_coeff 20     56      4.331183156556572822E-02 2.915407359639444529E+00
pair_coeff 21      56      0.000000000000000000E+00 0.000000000000000000E+00
pair_coeff 22    56      0.000000000000000000E+00 0.000000000000000000E+00
pair_coeff 23      56      1.737850588051431666E-01 3.441721286142719993E+00
pair_coeff 24   56      3.676802214070164498E-01 2.331880049283297840E+00
pair_coeff 25   56      3.676802214070164498E-01 2.331880049283297840E+00
pair_coeff 26     56      0.000000000000000000E+00 0.000000000000000000E+00
pair_coeff 27   56      2.709162932331031781E-01 2.453646898458591963E+00
pair_coeff 28   56      7.038735361689542336E-02 2.631207833337182223E+00
pair_coeff 29   56      8.962608232733035307E-02 3.173996968575379718E+00
pair_coeff 30     56      1.256564845410435005E-01 3.494459690227617266E+00
pair_coeff 31      56      8.499913033581890653E-02 3.244824150032262100E+00
pair_coeff 32     56      1.410540186851716171E-01 3.525057684932574986E+00
pair_coeff 33     56      2.151119962679723108E-01 3.615821387226038297E+00
pair_coeff 34   56      1.269630472365963769E-01 3.591194913038851411E+00
pair_coeff 35   56      9.335763782481623640E-02 3.373010538257620983E+00
pair_coeff 36    56      1.838222906573640236E-02 3.343270360670348218E+00
pair_coeff 37    56      1.036857643481583074E-01 3.829812028396864854E+00
pair_coeff 38   56      8.213171219204309925E-02 3.489442153850004225E+00
pair_coeff 39  56      1.409186387258750672E-01 3.509881576780662371E+00
pair_coeff 40   56      3.618604110595938922E-02 2.808278980140014092E+00
pair_coeff 41  56      1.433735664130799115E-01 3.570551028367321855E+00
pair_coeff 42  56      1.172230999498745652E-01 3.663600408719620116E+00
pair_coeff 43  56      1.648590726968548470E-01 3.068979881992677683E+00
pair_coeff 44   56      6.006149585721085732E-02 3.676278959205930619E+00
pair_coeff 45  56      1.339404182663543053E-01 3.513741746503062924E+00
pair_coeff 46   56      7.413624147890124361E-02 3.319620862051439580E+00
pair_coeff 47   56      8.019708410451541203E-02 3.469393659665676477E+00
pair_coeff 48  56      8.808073916348332921E-02 3.746722686727856910E+00
pair_coeff 49   56      1.160312939550487005E-01 3.252970697627771912E+00
pair_coeff 50  56      8.344727382835046003E-02 3.664574520351796316E+00
pair_coeff 51  56      1.180008866429317071E-01 3.255796961067685569E+00
pair_coeff 52  56      1.061554500800334505E-01 3.411602396114444158E+00
pair_coeff 53   56      1.172230999498745652E-01 3.663600408719620116E+00
pair_coeff 54      56      2.355507420287134279E-01 3.712968515405449921E+00
pair_coeff 55  56      1.478995001499436579E-01 3.421967204782814687E+00
pair_coeff 56      56      6.630154972997068241E-02 3.581179283634555510E+00
pair_coeff 1      57     3.731714874568097806E-01 3.021498329079459921E+00
pair_coeff 2     57     4.333660288663451210E-01 2.947120929208018492E+00
pair_coeff 3     57     3.392468067789179420E-01 3.069878160802191225E+00
pair_coeff 4     57     3.392468067789179420E-01 3.069878160802191225E+00
pair_coeff 5     57     2.660524812168876263E-01 3.235891839220214727E+00
pair_coeff 6      57     2.639217367579247409E-01 3.220946106087509531E+00
pair_coeff 7     57     2.639217367579247409E-01 3.220946106087509531E+00
pair_coeff 8     57     2.639217367579247409E-01 3.220946106087509531E+00
pair_coeff 9     57     2.639217367579247409E-01 3.220946106087509531E+00
pair_coeff 10     57     2.639217367579247409E-01 3.220946106087509531E+00
pair_coeff 11     57     2.639217367579247409E-01 3.220946106087509531E+00
pair_coeff 12      57     1.737850588051431666E-01 3.441721286142719993E+00
pair_coeff 13    57     2.759696924716207450E-02 4.686300458613273712E+00
pair_coeff 14    57     1.016397168676915763E-01 4.074545090238809841E+00
pair_coeff 15    57     2.114139996840987690E-01 3.669274586167817986E+00
pair_coeff 16    57     3.072571214561132247E-01 3.520932774360979955E+00
pair_coeff 17    57     3.709050306349177539E-01 3.503052561617904459E+00
pair_coeff 18   57     2.284273523866607036E-01 3.616775497184223198E+00
pair_coeff 19    57     2.339329629063890137E-01 3.517771551839822930E+00
pair_coeff 20     57     1.135259918695059600E-01 2.801875799210098883E+00
pair_coeff 21      57     0.000000000000000000E+00 0.000000000000000000E+00
pair_coeff 22    57     0.000000000000000000E+00 0.000000000000000000E+00
pair_coeff 23      57     4.555134350088204109E-01 3.307694050845144673E+00
pair_coeff 24   57     9.637380899683938296E-01 2.241072162744267793E+00
pair_coeff 25   57     9.637380899683938296E-01 2.241072162744267793E+00
pair_coeff 26     57     0.000000000000000000E+00 0.000000000000000000E+00
pair_coeff 27   57     7.101071414248384395E-01 2.358097177009347067E+00
pair_coeff 28   57     1.844944867392919463E-01 2.528743548150760745E+00
pair_coeff 29   57     2.349217182881164212E-01 3.050395432258705242E+00
pair_coeff 30     57     3.293621287006147091E-01 3.358378720212484847E+00
pair_coeff 31      57     2.227938701879095817E-01 3.118464467275081642E+00
pair_coeff 32     57     3.697210854307304562E-01 3.387785170252723521E+00
pair_coeff 33     57     5.638367590708479593E-01 3.475014359704387434E+00
pair_coeff 34   57     3.327868009112045500E-01 3.451346887707100741E+00
pair_coeff 35   57     2.447026147257768958E-01 3.241659031413521852E+00
pair_coeff 36    57     4.818223363057468761E-02 3.213076993445320717E+00
pair_coeff 37    57     2.717739891131936147E-01 3.680671794426697563E+00
pair_coeff 38   57     2.152779911056781903E-01 3.353556576335538608E+00
pair_coeff 39  57     3.693662367992399664E-01 3.373200048891741964E+00
pair_coeff 40   57     9.484836036467202136E-02 2.698919204504523606E+00
pair_coeff 41  57     3.758009242872520916E-01 3.431506915542800851E+00
pair_coeff 42  57     3.072571214561132247E-01 3.520932774360979955E+00
pair_coeff 43  57     4.321172545720066149E-01 2.949467912669808012E+00
pair_coeff 44   57     1.574290590790217992E-01 3.533117597747393646E+00
pair_coeff 45  57     3.510754056218069463E-01 3.376909896193278637E+00
pair_coeff 46   57     1.943208135778947410E-01 3.190348451711801925E+00
pair_coeff 47   57     2.102070771175983122E-01 3.334288809009665400E+00
pair_coeff 48  57     2.308711711486143847E-01 3.600818111261308019E+00
pair_coeff 49   57     3.041332416110918979E-01 3.126293772665116322E+00
pair_coeff 50  57     2.187262507204020268E-01 3.521868952215817750E+00
pair_coeff 51  57     3.092958024031092212E-01 3.129009975979999414E+00
pair_coeff 52  57     2.782473593721414562E-01 3.278748048225554435E+00
pair_coeff 53   57     3.072571214561132247E-01 3.520932774360979955E+00
pair_coeff 54      57     6.174093927181751873E-01 3.568378392181247971E+00
pair_coeff 55  57     3.876639902911756530E-01 3.288709231343011297E+00
pair_coeff 56      57     1.737850588051431666E-01 3.441721286142719993E+00
pair_coeff 57     57     4.555134350088204109E-01 3.307694050845144673E+00
pair_coeff 1      58   0.000000000000000000E+00 0.000000000000000000E+00
pair_coeff 2     58   0.000000000000000000E+00 0.000000000000000000E+00
pair_coeff 3     58   0.000000000000000000E+00 0.000000000000000000E+00
pair_coeff 4     58   0.000000000000000000E+00 0.000000000000000000E+00
pair_coeff 5     58   0.000000000000000000E+00 0.000000000000000000E+00
pair_coeff 6      58   0.000000000000000000E+00 0.000000000000000000E+00
pair_coeff 7     58   0.000000000000000000E+00 0.000000000000000000E+00
pair_coeff 8     58   0.000000000000000000E+00 0.000000000000000000E+00
pair_coeff 9     58   0.000000000000000000E+00 0.000000000000000000E+00
pair_coeff 10     58   0.000000000000000000E+00 0.000000000000000000E+00
pair_coeff 11     58   0.000000000000000000E+00 0.000000000000000000E+00
pair_coeff 12      58   0.000000000000000000E+00 0.000000000000000000E+00
pair_coeff 13    58   0.000000000000000000E+00 0.000000000000000000E+00
pair_coeff 14    58   0.000000000000000000E+00 0.000000000000000000E+00
pair_coeff 15    58   0.000000000000000000E+00 0.000000000000000000E+00
pair_coeff 16    58   0.000000000000000000E+00 0.000000000000000000E+00
pair_coeff 17    58   0.000000000000000000E+00 0.000000000000000000E+00
pair_coeff 18   58   0.000000000000000000E+00 0.000000000000000000E+00
pair_coeff 19    58   0.000000000000000000E+00 0.000000000000000000E+00
pair_coeff 20     58   0.000000000000000000E+00 0.000000000000000000E+00
pair_coeff 21      58   0.000000000000000000E+00 0.000000000000000000E+00
pair_coeff 22    58   0.000000000000000000E+00 0.000000000000000000E+00
pair_coeff 23      58   0.000000000000000000E+00 0.000000000000000000E+00
pair_coeff 24   58   0.000000000000000000E+00 0.000000000000000000E+00
pair_coeff 25   58   0.000000000000000000E+00 0.000000000000000000E+00
pair_coeff 26     58   0.000000000000000000E+00 0.000000000000000000E+00
pair_coeff 27   58   0.000000000000000000E+00 0.000000000000000000E+00
pair_coeff 28   58   0.000000000000000000E+00 0.000000000000000000E+00
pair_coeff 29   58   0.000000000000000000E+00 0.000000000000000000E+00
pair_coeff 30     58   0.000000000000000000E+00 0.000000000000000000E+00
pair_coeff 31      58   0.000000000000000000E+00 0.000000000000000000E+00
pair_coeff 32     58   0.000000000000000000E+00 0.000000000000000000E+00
pair_coeff 33     58   0.000000000000000000E+00 0.000000000000000000E+00
pair_coeff 34   58   0.000000000000000000E+00 0.000000000000000000E+00
pair_coeff 35   58   0.000000000000000000E+00 0.000000000000000000E+00
pair_coeff 36    58   0.000000000000000000E+00 0.000000000000000000E+00
pair_coeff 37    58   0.000000000000000000E+00 0.000000000000000000E+00
pair_coeff 38   58   0.000000000000000000E+00 0.000000000000000000E+00
pair_coeff 39  58   0.000000000000000000E+00 0.000000000000000000E+00
pair_coeff 40   58   0.000000000000000000E+00 0.000000000000000000E+00
pair_coeff 41  58   0.000000000000000000E+00 0.000000000000000000E+00
pair_coeff 42  58   0.000000000000000000E+00 0.000000000000000000E+00
pair_coeff 43  58   0.000000000000000000E+00 0.000000000000000000E+00
pair_coeff 44   58   0.000000000000000000E+00 0.000000000000000000E+00
pair_coeff 45  58   0.000000000000000000E+00 0.000000000000000000E+00
pair_coeff 46   58   0.000000000000000000E+00 0.000000000000000000E+00
pair_coeff 47   58   0.000000000000000000E+00 0.000000000000000000E+00
pair_coeff 48  58   0.000000000000000000E+00 0.000000000000000000E+00
pair_coeff 49   58   0.000000000000000000E+00 0.000000000000000000E+00
pair_coeff 50  58   0.000000000000000000E+00 0.000000000000000000E+00
pair_coeff 51  58   0.000000000000000000E+00 0.000000000000000000E+00
pair_coeff 52  58   0.000000000000000000E+00 0.000000000000000000E+00
pair_coeff 53   58   0.000000000000000000E+00 0.000000000000000000E+00
pair_coeff 54      58   0.000000000000000000E+00 0.000000000000000000E+00
pair_coeff 55  58   0.000000000000000000E+00 0.000000000000000000E+00
pair_coeff 56      58   0.000000000000000000E+00 0.000000000000000000E+00
pair_coeff 57     58   0.000000000000000000E+00 0.000000000000000000E+00
pair_coeff 58   58   0.000000000000000000E+00 0.000000000000000000E+00
pair_coeff 1      59  3.175870057215742226E-01 3.004156156701421221E+00
pair_coeff 2     59  3.688154752311860185E-01 2.930205652875953248E+00
pair_coeff 3     59  2.887154597468856720E-01 3.052258307853131569E+00
pair_coeff 4     59  2.887154597468856720E-01 3.052258307853131569E+00
pair_coeff 5     59  2.264235444414708642E-01 3.217319135230157112E+00
pair_coeff 6      59  2.246101777309229275E-01 3.202459184531222913E+00
pair_coeff 7     59  2.246101777309229275E-01 3.202459184531222913E+00
pair_coeff 8     59  2.246101777309229275E-01 3.202459184531222913E+00
pair_coeff 9     59  2.246101777309229275E-01 3.202459184531222913E+00
pair_coeff 10     59  2.246101777309229275E-01 3.202459184531222913E+00
pair_coeff 11     59  2.246101777309229275E-01 3.202459184531222913E+00
pair_coeff 12      59  1.478995001499436579E-01 3.421967204782814687E+00
pair_coeff 13    59  2.348635714353968298E-02 4.659402998639063931E+00
pair_coeff 14    59  8.650032070345334279E-02 4.051158857442665351E+00
pair_coeff 15    59  1.799235509252720133E-01 3.648214441350505322E+00
pair_coeff 16    59  2.614906885166861650E-01 3.500724051252714020E+00
pair_coeff 17    59  3.156581412186418856E-01 3.482946463663709302E+00
pair_coeff 18   59  1.944027379041995962E-01 3.596016675800414841E+00
pair_coeff 19    59  1.990882790519060419E-01 3.497580972864009485E+00
pair_coeff 20     59  9.661611629313200666E-02 2.785794170892084587E+00
pair_coeff 21      59  0.000000000000000000E+00 0.000000000000000000E+00
pair_coeff 22    59  0.000000000000000000E+00 0.000000000000000000E+00
pair_coeff 23      59  3.876639902911756530E-01 3.288709231343011297E+00
pair_coeff 24   59  8.201877811694162634E-01 2.228209319371530661E+00
pair_coeff 25   59  8.201877811694162634E-01 2.228209319371530661E+00
pair_coeff 26     59  0.000000000000000000E+00 0.000000000000000000E+00
pair_coeff 27   59  6.043355625145997445E-01 2.344562657617333290E+00
pair_coeff 28   59  1.570137418991634226E-01 2.514229587944387223E+00
pair_coeff 29   59  1.999297577597621556E-01 3.032887402253098053E+00
pair_coeff 30     59  2.803031200614393148E-01 3.339102991308009027E+00
pair_coeff 31      59  1.896083717657784939E-01 3.100565748673854038E+00
pair_coeff 32     59  3.146505465202936724E-01 3.368340660276711862E+00
pair_coeff 33     59  4.798523843539687084E-01 3.455069189633579008E+00
pair_coeff 34   59  2.832176819438365079E-01 3.431537559306359508E+00
pair_coeff 35   59  2.082537742436552652E-01 3.223053226084240830E+00
pair_coeff 36    59  4.100541392375962879E-02 3.194635237397348781E+00
pair_coeff 37    59  2.312928247109353463E-01 3.659546234266159548E+00
pair_coeff 38   59  1.832119947291552531E-01 3.334308524577047184E+00
pair_coeff 39  59  3.143485531522378085E-01 3.353839251584496139E+00
pair_coeff 40   59  8.072054746493292909E-02 2.683428505195357694E+00
pair_coeff 41  59  3.198247837881820765E-01 3.411811460518701100E+00
pair_coeff 42  59  2.614906885166861650E-01 3.500724051252714020E+00
pair_coeff 43  59  3.677527078379324021E-01 2.932539165606559806E+00
pair_coeff 44   59  1.339797523846405214E-01 3.512838938705180603E+00
pair_coeff 45  59  2.987821701324951396E-01 3.357527805870319515E+00
pair_coeff 46   59  1.653764218541119713E-01 3.172037148255793415E+00
pair_coeff 47   59  1.788964013789737795E-01 3.315151346404604737E+00
pair_coeff 48  59  1.964825460064327234E-01 3.580150878787119240E+00
pair_coeff 49   59  2.588321155025055109E-01 3.108350117033022997E+00
pair_coeff 50  59  1.861466306346315491E-01 3.501654855827156965E+00
pair_coeff 51  59  2.632257047206049139E-01 3.111050730444828272E+00
pair_coeff 52  59  2.368019762580622356E-01 3.259929367013902457E+00
pair_coeff 53   59  2.614906885166861650E-01 3.500724051252714020E+00
pair_coeff 54      59  5.254452897086219210E-01 3.547897350510067938E+00
pair_coeff 55  59  3.299208273968177729E-01 3.269833376988799500E+00
pair_coeff 56      59  1.478995001499436579E-01 3.421967204782814687E+00
pair_coeff 57     59  3.876639902911756530E-01 3.288709231343011297E+00
pair_coeff 58   59  0.000000000000000000E+00 0.000000000000000000E+00
pair_coeff 59  59  3.299208273968177729E-01 3.269833376988799500E+00
pair_coeff 1      60  4.213927930353735807E-01 3.280869740545562685E+00
pair_coeff 2     60  4.893656869531686771E-01 3.200107637098358104E+00
pair_coeff 3     60  3.830843573048849926E-01 3.333402593012885884E+00
pair_coeff 4     60  3.830843573048849926E-01 3.333402593012885884E+00
pair_coeff 5     60  3.004318441315838584E-01 3.513667214970925379E+00
pair_coeff 6      60  2.980257643827635139E-01 3.497438510452560934E+00
pair_coeff 7     60  2.980257643827635139E-01 3.497438510452560934E+00
pair_coeff 8     60  2.980257643827635139E-01 3.497438510452560934E+00
pair_coeff 9     60  2.980257643827635139E-01 3.497438510452560934E+00
pair_coeff 10     60  2.980257643827635139E-01 3.497438510452560934E+00
pair_coeff 11     60  2.980257643827635139E-01 3.497438510452560934E+00
pair_coeff 12      60  1.962416041396830291E-01 3.737165469999586431E+00
pair_coeff 13    60  3.116305597093314839E-02 5.088581787981105720E+00
pair_coeff 14    60  1.147736244965881502E-01 4.424312125013074137E+00
pair_coeff 15    60  2.387329654277859925E-01 3.984252396783054539E+00
pair_coeff 16    60  3.469609574750426306E-01 3.823176629528523662E+00
pair_coeff 17    60  4.188334641408217873E-01 3.803761543847788751E+00
pair_coeff 18   60  2.579447874860245626E-01 3.927246681838655107E+00
pair_coeff 19    60  2.641618342654674101E-01 3.819744041394028677E+00
pair_coeff 20     60  1.281958466924380258E-01 3.042394376963291069E+00
pair_coeff 21      60  0.000000000000000000E+00 0.000000000000000000E+00
pair_coeff 22    60  0.000000000000000000E+00 0.000000000000000000E+00
pair_coeff 23      60  5.143749860195843127E-01 3.591633070903154312E+00
pair_coeff 24   60  1.088272547975307258E+00 2.433450243663300760E+00
pair_coeff 25   60  1.088272547975307258E+00 2.433450243663300760E+00
pair_coeff 26     60  0.000000000000000000E+00 0.000000000000000000E+00
pair_coeff 27   60  8.018673498307147263E-01 2.560520917340021185E+00
pair_coeff 28   60  2.083349068186673148E-01 2.745815911556464428E+00
pair_coeff 29   60  2.652783568454061824E-01 3.312247428395911797E+00
pair_coeff 30     60  3.719223788481205717E-01 3.646668612851485136E+00
pair_coeff 31      60  2.515833454197372587E-01 3.386159644432585214E+00
pair_coeff 32     60  4.174965292645979598E-01 3.678599370907961408E+00
pair_coeff 33     60  6.366958749718966137E-01 3.773316487051947554E+00
pair_coeff 34   60  3.757895879907217074E-01 3.747617352300228966E+00
pair_coeff 35   60  2.763231429740154454E-01 3.519929474384682955E+00
pair_coeff 36    60  5.440835296030136631E-02 3.488893897568208224E+00
pair_coeff 37    60  3.068926865963431116E-01 3.996627964011863376E+00
pair_coeff 38   60  2.430962627110289931E-01 3.641432526576616979E+00
pair_coeff 39  60  4.170958270111979060E-01 3.662762233791288402E+00
pair_coeff 40   60  1.071046873416893891E-01 2.930599783893948374E+00
pair_coeff 41  60  4.243620062988024966E-01 3.726074277561229664E+00
pair_coeff 42  60  3.469609574750426306E-01 3.823176629528523662E+00
pair_coeff 43  60  4.879555457568295340E-01 3.202656090277113510E+00
pair_coeff 44   60  1.777720783609382238E-01 3.836407422330105899E+00
pair_coeff 45  60  3.964414504152660723E-01 3.666790541745827525E+00
pair_coeff 46   60  2.194309938750947930E-01 3.464214292717012533E+00
pair_coeff 47   60  2.373700840491974606E-01 3.620510775874676401E+00
pair_coeff 48  60  2.607043970713927572E-01 3.909919482247368627E+00
pair_coeff 49   60  3.434334091567836644E-01 3.394661032931277411E+00
pair_coeff 50  60  2.469901072275602905E-01 3.824193170747873793E+00
pair_coeff 51  60  3.492630772436706166E-01 3.397610400527878660E+00
pair_coeff 52  60  3.142025472514550222E-01 3.560202285987479787E+00
pair_coeff 53   60  3.469609574750426306E-01 3.823176629528523662E+00
pair_coeff 54      60  6.971911766809288924E-01 3.874695073318440208E+00
pair_coeff 55  60  4.377580204247071283E-01 3.571018556827535662E+00
pair_coeff 56      60  1.962416041396830291E-01 3.737165469999586431E+00
pair_coeff 57     60  5.143749860195843127E-01 3.591633070903154312E+00
pair_coeff 58   60  0.000000000000000000E+00 0.000000000000000000E+00
pair_coeff 59  60  4.377580204247071283E-01 3.571018556827535662E+00
pair_coeff 60  60  5.808426402121911192E-01 3.899945979801004992E+00
pair_coeff 1      61  1.910810716445957014E-01 3.063480889575645350E+00
pair_coeff 2     61  2.219034625996930687E-01 2.988070044257751245E+00
pair_coeff 3     61  1.557302947388717884E-01 3.169732425659423480E+00
pair_coeff 4     61  1.737100651314506250E-01 3.112532940505829959E+00
pair_coeff 5     61  1.362311830710550009E-01 3.280853315316931695E+00
pair_coeff 6      61  1.351401432989809970E-01 3.265699916954241999E+00
pair_coeff 7     61  9.147486144193246738E-02 3.485165270484214428E+00
pair_coeff 8     61  6.708554049685398757E-02 3.670023545392655517E+00
pair_coeff 9     61  1.117970875851971996E-01 3.370558915160181357E+00
pair_coeff 10     61  9.581863977856053260E-02 3.458321283688134518E+00
pair_coeff 11     61  1.037391321796109073E-01 3.412845037342698173E+00
pair_coeff 12      61  8.898599273651414121E-02 3.489542683465986617E+00
pair_coeff 13    61  1.413092541937840431E-02 4.751414806224702581E+00
pair_coeff 14    61  5.204423883799429856E-02 4.131159331623315722E+00
pair_coeff 15    61  1.082537519026915002E-01 3.720257749325097230E+00
pair_coeff 16    61  1.573298657900891462E-01 3.569854784934338721E+00
pair_coeff 17    61  1.899205408620464608E-01 3.551726133492507209E+00
pair_coeff 18   61  1.169653758502452456E-01 3.667029205634201983E+00
pair_coeff 19    61  1.197845032314313607E-01 3.566649638438623260E+00
pair_coeff 20     61  5.813056172586479609E-02 2.840806788882025202E+00
pair_coeff 21      61  0.000000000000000000E+00 0.000000000000000000E+00
pair_coeff 22    61  0.000000000000000000E+00 0.000000000000000000E+00
pair_coeff 23      61  2.332439595082145267E-01 3.353653191135248957E+00
pair_coeff 24   61  1.570138934856017687E-01 2.750027377697141340E+00
pair_coeff 25   61  8.635572240102759589E-02 3.038166082187003791E+00
pair_coeff 26     61  0.000000000000000000E+00 0.000000000000000000E+00
pair_coeff 27   61  3.636077195786372451E-01 2.390862032921029723E+00
pair_coeff 28   61  9.446971546223430216E-02 2.563879469944211564E+00
pair_coeff 29   61  1.202907917456541853E-01 3.092779506921127464E+00
pair_coeff 30     61  1.686486525006622439E-01 3.405042104545177306E+00
pair_coeff 31      61  1.140807722516042760E-01 3.161794335073641271E+00
pair_coeff 32     61  1.893143061255012083E-01 3.434857145930944711E+00
pair_coeff 33     61  2.887105145415023166E-01 3.523298351516439553E+00
pair_coeff 34   61  1.704022431634715784E-01 3.499302029072553388E+00
pair_coeff 35   61  1.252990633735053816E-01 3.286700640433966480E+00
pair_coeff 36    61  2.467153345263567096E-02 3.257721466009803724E+00
pair_coeff 37    61  1.391608599006002867E-01 3.731813317421747822E+00
pair_coeff 38   61  1.102322943328560290E-01 3.400152958828419614E+00
pair_coeff 39  61  1.891326072040779016E-01 3.420069369902248191E+00
pair_coeff 40   61  4.856675001010610920E-02 2.736419651778293272E+00
pair_coeff 41  61  1.924274649899363476E-01 3.479186388103933769E+00
pair_coeff 42  61  1.573298657900891462E-01 3.569854784934338721E+00
pair_coeff 43  61  2.212640323687539434E-01 2.990449638154641487E+00
pair_coeff 44   61  8.061096393464804721E-02 3.582208911768658854E+00
pair_coeff 45  61  1.797668551567465633E-01 3.423830764109261793E+00
pair_coeff 46   61  9.950124955784923897E-02 3.234677119905607690E+00
pair_coeff 47   61  1.076357516932685832E-01 3.380617473265008499E+00
pair_coeff 48  61  1.182167241542694813E-01 3.650850097953766138E+00
pair_coeff 49   61  1.557302947388717884E-01 3.169732425659423480E+00
pair_coeff 50  61  1.119979628381875536E-01 3.570803970621432288E+00
pair_coeff 51  61  1.583737647834132234E-01 3.172486369577665499E+00
pair_coeff 52  61  1.424755250553842723E-01 3.324304994910451949E+00
pair_coeff 53   61  1.573298657900891462E-01 3.569854784934338721E+00
pair_coeff 54      61  3.161421822659541414E-01 3.617959641418169170E+00
pair_coeff 55  61  1.985019037967935274E-01 3.334404584847074471E+00
pair_coeff 56      61  8.898599273651414121E-02 3.489542683465986617E+00
pair_coeff 57     61  2.332439595082145267E-01 3.353653191135248957E+00
pair_coeff 58   61  0.000000000000000000E+00 0.000000000000000000E+00
pair_coeff 59  61  1.985019037967935274E-01 3.334404584847074471E+00
pair_coeff 60  61  2.633837976894515820E-01 3.641537434982425658E+00
pair_coeff 61  61  1.194317016050606556E-01 3.400250916053718875E+00
pair_coeff 1      62   3.022272329752703768E-01 3.080610167712853453E+00
pair_coeff 2     62   1.855061234448970586E-01 3.341688535145806327E+00
pair_coeff 3     62   2.783347785346825254E-01 3.123185389796383937E+00
pair_coeff 4     62   2.783347785346825254E-01 3.123185389796383937E+00
pair_coeff 5     62   2.434842638240715673E-01 3.232674486185113771E+00
pair_coeff 6      62   1.146462465840507594E-01 3.643241170326683598E+00
pair_coeff 7     62   9.900340316124917051E-02 3.733414477700354173E+00
pair_coeff 8     62   7.260679827666578767E-02 3.931440254472196472E+00
pair_coeff 9     62   1.209981842003316904E-01 3.610644682584218224E+00
pair_coeff 10     62   1.037046820823140647E-01 3.704658386908206591E+00
pair_coeff 11     62   1.122770449157311640E-01 3.655942855987651008E+00
pair_coeff 12      62   9.630969619111764968E-02 3.738103694920388520E+00
pair_coeff 13    62   1.529392539418433263E-02 5.089859289414571109E+00
pair_coeff 14    62   5.632757107994194185E-02 4.425422859853802571E+00
pair_coeff 15    62   1.171632257693376034E-01 3.985252653506883291E+00
pair_coeff 16    62   1.702783900034554321E-01 3.824136447770248637E+00
pair_coeff 17    62   2.055513348604910695E-01 3.804716487882746634E+00
pair_coeff 18   62   1.265918316646999775E-01 3.928232627132385968E+00
pair_coeff 19    62   1.296429781795231384E-01 3.820702997875749851E+00
pair_coeff 20     62   6.291480902858739843E-02 3.043158177829559552E+00
pair_coeff 21      62   0.000000000000000000E+00 0.000000000000000000E+00
pair_coeff 22    62   0.000000000000000000E+00 0.000000000000000000E+00
pair_coeff 23      62   2.524403469337466177E-01 3.592534759544063760E+00
pair_coeff 24   62   5.340926503741362241E-01 2.434061167552131533E+00
pair_coeff 25   62   5.340926503741362241E-01 2.434061167552131533E+00
pair_coeff 26     62   0.000000000000000000E+00 0.000000000000000000E+00
pair_coeff 27   62   3.935332733664513305E-01 2.561163742645501173E+00
pair_coeff 28   62   1.022447389261494227E-01 2.746505255642734511E+00
pair_coeff 29   62   1.301909351274692650E-01 3.313078976558852418E+00
pair_coeff 30     62   1.825287327352057842E-01 3.647584118305537970E+00
pair_coeff 31      62   8.776721851084816339E-02 3.585264437649749780E+00
pair_coeff 32     62   2.048952059406277393E-01 3.679522892660245681E+00
pair_coeff 33     62   3.124718968411722697E-01 3.774263787777763390E+00
pair_coeff 34   62   1.844266469887313464E-01 3.748558201192733641E+00
pair_coeff 35   62   1.356113963044227322E-01 3.520813161654846368E+00
pair_coeff 36    62   2.670204397705544519E-02 3.489769793277673227E+00
pair_coeff 37    62   1.506140430259195195E-01 3.997631327653401900E+00
pair_coeff 38   62   1.193046057156692125E-01 3.642346717497859210E+00
pair_coeff 39  62   2.046985528789223296E-01 3.663681779589916143E+00
pair_coeff 40   62   5.256387881532230411E-02 2.931335518442557131E+00
pair_coeff 41  62   2.082645832460674196E-01 3.727009718009888228E+00
pair_coeff 42  62   1.702783900034554321E-01 3.824136447770248637E+00
pair_coeff 43  62   1.845251754501273656E-01 3.345696810660210740E+00
pair_coeff 44   62   8.724538781296764522E-02 3.837370562196102064E+00
pair_coeff 45  62   1.945619829925733513E-01 3.667711098861439201E+00
pair_coeff 46   62   1.076903771128106951E-01 3.465083992548747993E+00
pair_coeff 47   62   1.164943630575195482E-01 3.621419714337055673E+00
pair_coeff 48  62   1.279461681314143506E-01 3.910901077503457834E+00
pair_coeff 49   62   1.685471714460022030E-01 3.395513271239786857E+00
pair_coeff 50  62   1.212155918393642284E-01 3.825153244194864577E+00
pair_coeff 51  62   1.714082037169344097E-01 3.398463379282643082E+00
pair_coeff 52  62   1.542015109432330056E-01 3.561096083849689897E+00
pair_coeff 53   62   1.702783900034554321E-01 3.824136447770248637E+00
pair_coeff 54      62   3.421612389871924731E-01 3.875667825396847732E+00
pair_coeff 55  62   2.148389590329646270E-01 3.571915070142120285E+00
pair_coeff 56      62   9.630969619111764968E-02 3.738103694920388520E+00
pair_coeff 57     62   2.524403469337466177E-01 3.592534759544063760E+00
pair_coeff 58   62   0.000000000000000000E+00 0.000000000000000000E+00
pair_coeff 59  62   2.148389590329646270E-01 3.571915070142120285E+00
pair_coeff 60  62   2.850607467204795409E-01 3.900925071183873882E+00
pair_coeff 61  62   2.134587638969343837E-01 3.350318751416838214E+00
pair_coeff 62   62   1.398995591837953467E-01 3.901904408370130639E+00
pair_coeff 1      63   1.498564773336243661E-01 3.117191049441867978E+00
pair_coeff 2     63   1.740291224406275705E-01 3.040458071326784140E+00
pair_coeff 3     63   1.362331612123857949E-01 3.167103100349917710E+00
pair_coeff 4     63   1.362331612123857949E-01 3.167103100349917710E+00
pair_coeff 5     63   1.068401230028258736E-01 3.338374534614535705E+00
pair_coeff 6      63   1.059844685129975872E-01 3.322955460872134559E+00
pair_coeff 7     63   1.059844685129975872E-01 3.322955460872134559E+00
pair_coeff 8     63   1.059844685129975872E-01 3.322955460872134559E+00
pair_coeff 9     63   1.059844685129975872E-01 3.322955460872134559E+00
pair_coeff 10     63   1.059844685129975872E-01 3.322955460872134559E+00
pair_coeff 11     63   1.059844685129975872E-01 3.322955460872134559E+00
pair_coeff 12      63   6.978779891046651973E-02 3.550722727391420364E+00
pair_coeff 13    63   1.108226307601466523E-02 4.834718491813685404E+00
pair_coeff 14    63   4.081600668577894941E-02 4.203588452656632057E+00
pair_coeff 15    63   8.489865468443062724E-02 3.785482781131149110E+00
pair_coeff 16    63   1.233868915625870588E-01 3.632442892420324476E+00
pair_coeff 17    63   1.489463241017357775E-01 3.613996402283818909E+00
pair_coeff 18   63   9.173079805373214601E-02 3.731321013537728604E+00
pair_coeff 19    63   9.394171562323941349E-02 3.629181552027246127E+00
pair_coeff 20     63   4.558924194158552046E-02 2.890612938252534736E+00
pair_coeff 21      63   0.000000000000000000E+00 0.000000000000000000E+00
pair_coeff 22    63   0.000000000000000000E+00 0.000000000000000000E+00
pair_coeff 23      63   1.829229752084453597E-01 3.412450766679025804E+00
pair_coeff 24   63   3.870134779566036798E-01 2.312048303858599940E+00
pair_coeff 25   63   3.870134779566036798E-01 2.312048303858599940E+00
pair_coeff 26     63   0.000000000000000000E+00 0.000000000000000000E+00
pair_coeff 27   63   2.851615365059002039E-01 2.432779572685431102E+00
pair_coeff 28   63   7.408844137221298753E-02 2.608830419916517318E+00
pair_coeff 29   63   9.433877542933588600E-02 3.147003341746720917E+00
pair_coeff 30     63   1.322637179773560601E-01 3.464740650865038685E+00
pair_coeff 31      63   8.946853036768810663E-02 3.217228165191134082E+00
pair_coeff 32     63   1.484708808708911920E-01 3.495078421360915844E+00
pair_coeff 33     63   2.264229539116222045E-01 3.585070213178863874E+00
pair_coeff 34   63   1.336389819799702339E-01 3.560653177709135697E+00
pair_coeff 35   63   9.826654251385204264E-02 3.344324377350627486E+00
pair_coeff 36    63   1.934879819235730755E-02 3.314837128566866298E+00
pair_coeff 37    63   1.091377396407426786E-01 3.797240946022814256E+00
pair_coeff 38   63   8.645033846078624407E-02 3.459765786709836810E+00
pair_coeff 39  63   1.483283824011816243E-01 3.480031380188026713E+00
pair_coeff 40   63   3.808876520011451883E-02 2.784395644531571179E+00
pair_coeff 41  63   1.509123943959561898E-01 3.540184861358758983E+00
pair_coeff 42  63   1.233868915625870588E-01 3.632442892420324476E+00
pair_coeff 43  63   1.735276454440603799E-01 3.042879385206016973E+00
pair_coeff 44   63   6.321963230446354942E-02 3.645013616697617920E+00
pair_coeff 45  63   1.409832351434577025E-01 3.483858720647509788E+00
pair_coeff 46   63   7.803445218669756434E-02 3.291388759862927227E+00
pair_coeff 47   63   8.441398431086369336E-02 3.439887797278931458E+00
pair_coeff 48  63   9.271217547193744135E-02 3.714858247335717678E+00
pair_coeff 49   63   1.221324183648120482E-01 3.225305429523958711E+00
pair_coeff 50  63   8.783507458389137879E-02 3.633408719606690873E+00
pair_coeff 51  63   1.242055756137348393E-01 3.228107656677332127E+00
pair_coeff 52  63   1.117372856834838307E-01 3.382588026258317004E+00
pair_coeff 53   63   1.233868915625870588E-01 3.632442892420324476E+00
pair_coeff 54      63   2.479364039733781833E-01 3.681391142293968244E+00
pair_coeff 55  63   1.556763094898980793E-01 3.392864686204393188E+00
pair_coeff 56      63   6.978779891046651973E-02 3.550722727391420364E+00
pair_coeff 57     63   1.829229752084453597E-01 3.412450766679025804E+00
pair_coeff 58   63   0.000000000000000000E+00 0.000000000000000000E+00
pair_coeff 59  63   1.556763094898980793E-01 3.392864686204393188E+00
pair_coeff 60  63   2.065603242057677535E-01 3.705382311070042789E+00
pair_coeff 61  63   9.366502883019156567E-02 3.459865461359993954E+00
pair_coeff 62   63   1.013738251713232619E-01 3.706312556747750619E+00
pair_coeff 63   63   7.345736105118740034E-02 3.520525192477496734E+00
pair_coeff 1      64   2.736888169216060152E-01 2.785635403427779710E+00
pair_coeff 2     64   3.178362756028405567E-01 2.717064020712530947E+00
pair_coeff 3     64   2.488080153832781527E-01 2.830238629172332043E+00
pair_coeff 4     64   2.488080153832781527E-01 2.830238629172332043E+00
pair_coeff 5     64   1.951263461191829751E-01 2.983293017984591344E+00
pair_coeff 6      64   1.935636304516219763E-01 2.969513972355486864E+00
pair_coeff 7     64   1.935636304516219763E-01 2.969513972355486864E+00
pair_coeff 8     64   1.935636304516219763E-01 2.969513972355486864E+00
pair_coeff 9     64   1.935636304516219763E-01 2.969513972355486864E+00
pair_coeff 10     64   1.935636304516219763E-01 2.969513972355486864E+00
pair_coeff 11     64   1.935636304516219763E-01 2.969513972355486864E+00
pair_coeff 12      64   1.274562198392401313E-01 3.173055093606844679E+00
pair_coeff 13    64   2.023997576918816488E-02 4.320480452686580541E+00
pair_coeff 14    64   7.454388879317874750E-02 3.756479673344732539E+00
pair_coeff 15    64   1.550537739325613118E-01 3.382845224091495684E+00
pair_coeff 16    64   2.253463645766736745E-01 3.246083208107312768E+00
pair_coeff 17    64   2.720265680439789557E-01 3.229598752975045173E+00
pair_coeff 18   64   1.675315878319233176E-01 3.334444296805542329E+00
pair_coeff 19    64   1.715694741126911615E-01 3.243168755602641173E+00
pair_coeff 20     64   8.326143729888541012E-02 2.583156954670584149E+00
pair_coeff 21      64   0.000000000000000000E+00 0.000000000000000000E+00
pair_coeff 22    64   0.000000000000000000E+00 0.000000000000000000E+00
pair_coeff 23      64   3.340794709935869244E-01 3.049490235709929387E+00
pair_coeff 24   64   7.068180354917007469E-01 2.066130534673785490E+00
pair_coeff 25   64   7.068180354917007469E-01 2.066130534673785490E+00
pair_coeff 26     64   0.000000000000000000E+00 0.000000000000000000E+00
pair_coeff 27   64   5.208018028082631590E-01 2.174020391731148916E+00
pair_coeff 28   64   1.353106534166275132E-01 2.331345837965244083E+00
pair_coeff 29   64   1.722946401549686202E-01 2.812276753150826814E+00
pair_coeff 30     64   2.415584640648248682E-01 3.096218379836923162E+00
pair_coeff 31      64   1.633999188005277048E-01 2.875032211922354808E+00
pair_coeff 32     64   2.711582472501199992E-01 3.123329316001555611E+00
pair_coeff 33     64   4.135252041325190309E-01 3.203749257330099631E+00
pair_coeff 34   64   2.440701631553644779E-01 3.181929305529774155E+00
pair_coeff 35   64   1.794680766699055796E-01 2.988610014058173281E+00
pair_coeff 36    64   3.533747609942639034E-02 2.962259135058813886E+00
pair_coeff 37    64   1.993225743407424921E-01 3.393352748295836552E+00
pair_coeff 38   64   1.578876754398131910E-01 3.091772660117416471E+00
pair_coeff 39  64   2.708979966538037076E-01 3.109882732220449419E+00
pair_coeff 40   64   6.956301970462222539E-02 2.488237314150513413E+00
pair_coeff 41  64   2.756172800531233036E-01 3.163638072888010022E+00
pair_coeff 42  64   2.253463645766736745E-01 3.246083208107312768E+00
pair_coeff 43  64   3.169204083120440441E-01 2.719227794943182452E+00
pair_coeff 44   64   1.154605171527362945E-01 3.257316864959954650E+00
pair_coeff 45  64   2.574832634447348223E-01 3.113302982989749168E+00
pair_coeff 46   64   1.425174091778202701E-01 2.941304819144806793E+00
pair_coeff 47   64   1.541686012426736752E-01 3.074008965101800328E+00
pair_coeff 48  64   1.693239162605719161E-01 3.319732569598804695E+00
pair_coeff 49   64   2.230552705147563208E-01 2.882250349383768562E+00
pair_coeff 50  64   1.604166738389782576E-01 3.246946306442084040E+00
pair_coeff 51  64   2.268415596685240676E-01 2.884754521583377418E+00
pair_coeff 52  64   2.040702281868096157E-01 3.022803803713983939E+00
pair_coeff 53   64   2.253463645766736745E-01 3.246083208107312768E+00
pair_coeff 54      64   4.528160696330849611E-01 3.289825146160248348E+00
pair_coeff 55  64   2.843178067782592411E-01 3.031987401164613072E+00
pair_coeff 56      64   1.274562198392401313E-01 3.173055093606844679E+00
pair_coeff 57     64   3.340794709935869244E-01 3.049490235709929387E+00
pair_coeff 58   64   0.000000000000000000E+00 0.000000000000000000E+00
pair_coeff 59  64   2.843178067782592411E-01 3.031987401164613072E+00
pair_coeff 60  64   3.772492971989485633E-01 3.311264527979406402E+00
pair_coeff 61  64   1.710641500693499129E-01 3.091861733013461677E+00
pair_coeff 62   64   1.851430299952198100E-01 3.312095829382690759E+00
pair_coeff 63   64   1.341580864437666998E-01 3.146069477063536013E+00
pair_coeff 64   64   2.450182241873804789E-01 2.811442217672497801E+00
pair_coeff 1      65   3.029649478331380430E-01 3.149235865916097055E+00
pair_coeff 2     65   1.859589305005138193E-01 3.416130186772377453E+00
pair_coeff 3     65   2.790141736360602920E-01 3.192759521648344645E+00
pair_coeff 4     65   2.790141736360602920E-01 3.192759521648344645E+00
pair_coeff 5     65   2.440785913349041991E-01 3.304687669158851371E+00
pair_coeff 6      65   1.476955362938090210E-01 3.571891367671221396E+00
pair_coeff 7     65   1.476955362938090210E-01 3.571891367671221396E+00
pair_coeff 8     65   1.476955362938090210E-01 3.571891367671221396E+00
pair_coeff 9     65   1.476955362938090210E-01 3.571891367671221396E+00
pair_coeff 10     65   1.476955362938090210E-01 3.571891367671221396E+00
pair_coeff 11     65   1.476955362938090210E-01 3.571891367671221396E+00
pair_coeff 12      65   9.725336675705262279E-02 3.816721592661593387E+00
pair_coeff 13    65   1.544377974741017144E-02 5.196906624050063428E+00
pair_coeff 14    65   5.687948509255881524E-02 4.518496105074461866E+00
pair_coeff 15    65   1.183112253160199800E-01 4.069068462579280343E+00
pair_coeff 16    65   1.719468274611148095E-01 3.904563742659835412E+00
pair_coeff 17    65   2.075653869462910639E-01 3.884735352042429479E+00
pair_coeff 18   65   1.278322154490358076E-01 4.010849219979507829E+00
pair_coeff 19    65   1.309132579896203075E-01 3.901058082191544596E+00
pair_coeff 20     65   6.353126672484969706E-02 3.107160334527358625E+00
pair_coeff 21      65   0.000000000000000000E+00 0.000000000000000000E+00
pair_coeff 22    65   0.000000000000000000E+00 0.000000000000000000E+00
pair_coeff 23      65   2.549138312710149123E-01 3.668091125393774021E+00
pair_coeff 24   65   5.393258463406160885E-01 2.485253105385875294E+00
pair_coeff 25   65   5.393258463406160885E-01 2.485253105385875294E+00
pair_coeff 26     65   0.000000000000000000E+00 0.000000000000000000E+00
pair_coeff 27   65   3.973892274549682413E-01 2.615028837263234429E+00
pair_coeff 28   65   1.032465627763134441E-01 2.804268358797742167E+00
pair_coeff 29   65   1.314665839799746549E-01 3.382757970360330546E+00
pair_coeff 30     65   1.843172026331671987E-01 3.724298254300499433E+00
pair_coeff 31      65   1.246796135270904909E-01 3.458243616680580335E+00
pair_coeff 32     65   2.069028290834072914E-01 3.756908748730711789E+00
pair_coeff 33     65   3.155335878587179343E-01 3.853642186220550769E+00
pair_coeff 34   65   1.862337132055325029E-01 3.827395972798371737E+00
pair_coeff 35   65   1.369401564205784128E-01 3.594861115296422938E+00
pair_coeff 36    65   2.696367841209141095E-02 3.563164858567346549E+00
pair_coeff 37    65   1.520898034616910699E-01 4.081707478711374293E+00
pair_coeff 38   65   1.204735871292430399E-01 3.718950703139931591E+00
pair_coeff 39  65   2.067042491574984375E-01 3.740734473418478423E+00
pair_coeff 40   65   5.307891507056041597E-02 2.992985877780431903E+00
pair_coeff 41  65   2.103052205329510593E-01 3.805394292865085681E+00
pair_coeff 42  65   1.719468274611148095E-01 3.904563742659835412E+00
pair_coeff 43  65   2.418208914499519191E-01 3.270833671068669624E+00
pair_coeff 44   65   8.810024363484980636E-02 3.918076190256606139E+00
pair_coeff 45  65   1.964683581952911540E-01 3.744848535285795421E+00
pair_coeff 46   65   1.087455589183283500E-01 3.537959878619287846E+00
pair_coeff 47   65   1.176358088917642403E-01 3.697583573880764529E+00
pair_coeff 48  65   1.291998221004829195E-01 3.993153162004202006E+00
pair_coeff 49   65   1.701986459179967992E-01 3.466925981245660537E+00
pair_coeff 50  65   1.224032976537840489E-01 3.905601923830262834E+00
pair_coeff 51  65   1.730877114197359179E-01 3.469938134462050350E+00
pair_coeff 52  65   1.557124224386972067E-01 3.635991247444840813E+00
pair_coeff 53   65   1.719468274611148095E-01 3.904563742659835412E+00
pair_coeff 54      65   3.455138348607721954E-01 3.957178902039792057E+00
pair_coeff 55  65   2.169440139762717490E-01 3.647037773160310081E+00
pair_coeff 56      65   9.725336675705262279E-02 3.816721592661593387E+00
pair_coeff 57     65   2.549138312710149123E-01 3.668091125393774021E+00
pair_coeff 58   65   0.000000000000000000E+00 0.000000000000000000E+00
pair_coeff 59  65   2.169440139762717490E-01 3.647037773160310081E+00
pair_coeff 60  65   2.878538552736386591E-01 3.982967345388086056E+00
pair_coeff 61  65   2.139798013299897272E-01 3.424952655417128344E+00
pair_coeff 62   65   1.412703359737776110E-01 3.983967279496484881E+00
pair_coeff 63   65   1.023671155538469490E-01 3.784261839422624174E+00
pair_coeff 64   65   1.869571155422015130E-01 3.381754146132254668E+00
pair_coeff 65   65   1.426545440355874161E-01 4.067756055235738799E+00
pair_coeff 1      66   4.547358060207790653E-01 2.888292173693689513E+00
pair_coeff 2     66   2.791154051078111320E-01 3.133071799912078959E+00
pair_coeff 3     66   4.187868466206033369E-01 2.928209486837023423E+00
pair_coeff 4     66   4.187868466206033369E-01 2.928209486837023423E+00
pair_coeff 5     66   3.663502189178132196E-01 3.030863338829969500E+00
pair_coeff 6      66   1.833232912906428147E-01 3.381325076733848078E+00
pair_coeff 7     66   1.833232912906428147E-01 3.381325076733848078E+00
pair_coeff 8     66   1.833232912906428147E-01 3.381325076733848078E+00
pair_coeff 9     66   1.833232912906428147E-01 3.381325076733848078E+00
pair_coeff 10     66   1.833232912906428147E-01 3.381325076733848078E+00
pair_coeff 11     66   1.833232912906428147E-01 3.381325076733848078E+00
pair_coeff 12      66   1.207132438148451475E-01 3.613093205741105152E+00
pair_coeff 13    66   1.916919498251404980E-02 4.919643091161947979E+00
pair_coeff 14    66   7.060020008554598880E-02 4.277426891393306008E+00
pair_coeff 15    66   1.468507699407754774E-01 3.851976954281385979E+00
pair_coeff 16    66   2.134245836275632802E-01 3.696248832273197671E+00
pair_coeff 17    66   2.576352058285252822E-01 3.677478318972391413E+00
pair_coeff 18   66   1.586684544241984962E-01 3.796863804219543059E+00
pair_coeff 19    66   1.624927193500039502E-01 3.692930204568213970E+00
pair_coeff 20     66   7.885655320479272035E-02 2.941388210084320498E+00
pair_coeff 21      66   0.000000000000000000E+00 0.000000000000000000E+00
pair_coeff 22    66   0.000000000000000000E+00 0.000000000000000000E+00
pair_coeff 23      66   3.164052463383004721E-01 3.472392418844832296E+00
pair_coeff 24   66   6.694243557407878464E-01 2.352660756519802554E+00
pair_coeff 25   66   6.694243557407878464E-01 2.352660756519802554E+00
pair_coeff 26     66   0.000000000000000000E+00 0.000000000000000000E+00
pair_coeff 27   66   4.932491727818341110E-01 2.475512739231275461E+00
pair_coeff 28   66   1.281521444557910949E-01 2.654656020425442797E+00
pair_coeff 29   66   1.631795210249484540E-01 3.202282257861074122E+00
pair_coeff 30     66   2.287789941124505622E-01 3.525600804795111287E+00
pair_coeff 31      66   1.547553682540754594E-01 3.273740620549896452E+00
pair_coeff 32     66   2.568128228971093829E-01 3.556471475605421873E+00
pair_coeff 33     66   3.916479623591037629E-01 3.648044024788604123E+00
pair_coeff 34   66   2.311578136403500405E-01 3.623198090106222846E+00
pair_coeff 35   66   1.699734522439199091E-01 3.403069350469131837E+00
pair_coeff 36    66   3.346797334466397600E-02 3.373064141271939320E+00
pair_coeff 37    66   1.887775625586927686E-01 3.863941658073751118E+00
pair_coeff 38   66   1.495347460074094303E-01 3.520538554301717582E+00
pair_coeff 39  66   2.565663406640278366E-01 3.541160124536279596E+00
pair_coeff 40   66   6.588284015242455716E-02 2.833305148764191372E+00
pair_coeff 41  66   2.610359539032401366E-01 3.602370236056116504E+00
pair_coeff 42  66   2.134245836275632802E-01 3.696248832273197671E+00
pair_coeff 43  66   3.001539710398187233E-01 3.096329304387715808E+00
pair_coeff 44   66   1.093521648109900685E-01 3.709040368522185549E+00
pair_coeff 45  66   2.438613038865376503E-01 3.545054694423006580E+00
pair_coeff 46   66   1.349776321912045940E-01 3.349203888541882890E+00
pair_coeff 47   66   1.460124266502917378E-01 3.500311396601526681E+00
pair_coeff 48  66   1.603659610572732153E-01 3.780111860100299648E+00
pair_coeff 49   66   2.112546981841710303E-01 3.281959766656903810E+00
pair_coeff 50  66   1.519299496369445057E-01 3.697231624767261415E+00
pair_coeff 51  66   2.148406765408863717E-01 3.284811216535175493E+00
pair_coeff 52  66   1.932740453273771308E-01 3.442005122285029639E+00
pair_coeff 53   66   2.134245836275632802E-01 3.696248832273197671E+00
pair_coeff 54      66   4.288601739941917956E-01 3.746056886190522572E+00
pair_coeff 55  66   2.692761857664918157E-01 3.452462297648919431E+00
pair_coeff 56      66   1.207132438148451475E-01 3.613093205741105152E+00
pair_coeff 57     66   3.164052463383004721E-01 3.472392418844832296E+00
pair_coeff 58   66   0.000000000000000000E+00 0.000000000000000000E+00
pair_coeff 59  66   2.692761857664918157E-01 3.452462297648919431E+00
pair_coeff 60  66   3.572912051620057983E-01 3.770469473586865128E+00
pair_coeff 61  66   3.211733836732513225E-01 3.141163244384396869E+00
pair_coeff 62   66   1.753481764061503856E-01 3.771416059562691103E+00
pair_coeff 63   66   1.270605531769710694E-01 3.582365233831064533E+00
pair_coeff 64   66   2.320557182122369999E-01 3.201331989309867510E+00
pair_coeff 65   66   1.770662891134783812E-01 3.850734566032467665E+00
pair_coeff 66   66   2.197789839249462973E-01 3.645291530929309243E+00
pair_coeff 1      67   1.691446126797976623E-01 2.985294938784757601E+00
pair_coeff 2     67   1.038204303792348571E-01 3.238295444039348325E+00
pair_coeff 3     67   1.557729521826987651E-01 3.026552867598893748E+00
pair_coeff 4     67   1.557729521826987651E-01 3.026552867598893748E+00
pair_coeff 5     67   1.362684993430692826E-01 3.132654330460733050E+00
pair_coeff 6      67   1.059571877347386532E-01 3.247362366332479766E+00
pair_coeff 7     67   9.149991811937653596E-02 3.327737337717295407E+00
pair_coeff 8     67   6.710391648259360353E-02 3.504245404295543764E+00
pair_coeff 9     67   1.118277109009218756E-01 3.218307850690846461E+00
pair_coeff 10     67   9.584488629822959793E-02 3.302105917046649353E+00
pair_coeff 11     67   1.037675482704622926E-01 3.258683872122532410E+00
pair_coeff 12      67   1.015608295071512290E-01 3.259466857310918897E+00
pair_coeff 13    67   1.612780240082512320E-02 4.438140034683073054E+00
pair_coeff 14    67   5.939874248642398880E-02 3.858779830233354247E+00
pair_coeff 15    67   1.235513646855942310E-01 3.474970199400187365E+00
pair_coeff 16    67   1.795625489418590515E-01 3.334483745402706312E+00
pair_coeff 17    67   2.167586951297953424E-01 3.317550369341032201E+00
pair_coeff 18   67   1.334940503517269006E-01 3.425251170357942243E+00
pair_coeff 19    67   1.367115557872998488E-01 3.331489923654913365E+00
pair_coeff 20     67   6.634513912854232698E-02 2.653504030845614370E+00
pair_coeff 21      67   0.000000000000000000E+00 0.000000000000000000E+00
pair_coeff 22    67   0.000000000000000000E+00 0.000000000000000000E+00
pair_coeff 23      67   2.662042561611659419E-01 3.132536959416989397E+00
pair_coeff 24   67   1.570569025311612521E-01 2.625806260038883178E+00
pair_coeff 25   67   8.637937685043090008E-02 2.900929489772888559E+00
pair_coeff 26     67   0.000000000000000000E+00 0.000000000000000000E+00
pair_coeff 27   67   3.637073185416969667E-01 2.282864724856101368E+00
pair_coeff 28   67   9.449559248627407981E-02 2.448066814448311757E+00
pair_coeff 29   67   1.203237416459956299E-01 2.953075978826793957E+00
pair_coeff 30     67   1.924808221665462171E-01 3.180537650420577123E+00
pair_coeff 31      67   8.111532584620605169E-02 3.195685452558168382E+00
pair_coeff 32     67   1.893661628589180523E-01 3.279701674707491854E+00
pair_coeff 33     67   2.887895977576290796E-01 3.364147914463202049E+00
pair_coeff 34   67   1.944822171822568335E-01 3.268582740519445640E+00
pair_coeff 35   67   1.253333851332271154E-01 3.138237526839545488E+00
pair_coeff 36    67   2.467829144763044116E-02 3.110567366814649404E+00
pair_coeff 37    67   1.391989786659572903E-01 3.563244078823733396E+00
pair_coeff 38   67   1.258094999745671128E-01 3.175970860479923275E+00
pair_coeff 39  67   2.158594165642706009E-01 3.194574123915934649E+00
pair_coeff 40   67   5.542984087504426033E-02 2.555999445121150515E+00
pair_coeff 41  67   2.196198790769573750E-01 3.249793383002357761E+00
pair_coeff 42  67   1.795625489418590515E-01 3.334483745402706312E+00
pair_coeff 43  67   1.705399805009815140E-01 2.982149521307246864E+00
pair_coeff 44   67   9.200230410212105470E-02 3.346023328270764097E+00
pair_coeff 45  67   2.051701662942675142E-01 3.198087518325217538E+00
pair_coeff 46   67   9.952850481329482413E-02 3.088563953776058746E+00
pair_coeff 47   67   1.228460332960751161E-01 3.157723407013565797E+00
pair_coeff 48  67   1.349222298646011453E-01 3.410138798895884893E+00
pair_coeff 49   67   1.557729521826987651E-01 3.026552867598893748E+00
pair_coeff 50  67   1.278246795834196148E-01 3.335370348482007863E+00
pair_coeff 51  67   1.584171463231851262E-01 3.029182413485949965E+00
pair_coeff 52  67   1.425145517695953212E-01 3.174143260066013106E+00
pair_coeff 53   67   1.795625489418590515E-01 3.334483745402706312E+00
pair_coeff 54      67   3.608170374432017602E-01 3.379416907025193595E+00
pair_coeff 55  67   2.265527122683737016E-01 3.114557470430365349E+00
pair_coeff 56      67   1.015608295071512290E-01 3.259466857310918897E+00
pair_coeff 57     67   2.662042561611659419E-01 3.132536959416989397E+00
pair_coeff 58   67   0.000000000000000000E+00 0.000000000000000000E+00
pair_coeff 59  67   2.265527122683737016E-01 3.114557470430365349E+00
pair_coeff 60  67   3.006032314691269858E-01 3.401440147220920363E+00
pair_coeff 61  67   1.194644161845258429E-01 3.246658638196322055E+00
pair_coeff 62   67   2.135172342494472131E-01 3.198981952667974138E+00
pair_coeff 63   67   1.069010720818995841E-01 3.231746341860607608E+00
pair_coeff 64   67   1.952376598350860082E-01 2.888006183129844473E+00
pair_coeff 65   67   2.140384144044120418E-01 3.270244578605614905E+00
pair_coeff 66   67   3.212613590771104533E-01 2.999274180977609561E+00
pair_coeff 67   67   1.194971397251269885E-01 3.100004256511835088E+00
pair_coeff 1      68     4.228207516674085675E-01 3.056859151858752899E+00
pair_coeff 2     68     4.910239828909634396E-01 2.981611307668237565E+00
pair_coeff 3     68     3.843825015158260361E-01 3.105805176400184386E+00
pair_coeff 4     68     3.843825015158260361E-01 3.105805176400184386E+00
pair_coeff 5     68     3.014499067379129427E-01 3.273761725414885415E+00
pair_coeff 6      68     2.990356735930130294E-01 3.258641081240354787E+00
pair_coeff 7     68     2.990356735930130294E-01 3.258641081240354787E+00
pair_coeff 8     68     2.990356735930130294E-01 3.258641081240354787E+00
pair_coeff 9     68     2.990356735930130294E-01 3.258641081240354787E+00
pair_coeff 10     68     2.990356735930130294E-01 3.258641081240354787E+00
pair_coeff 11     68     2.990356735930130294E-01 3.258641081240354787E+00
pair_coeff 12      68     1.969066010196180716E-01 3.482000009875157343E+00
pair_coeff 13    68     3.126865710011655919E-02 4.741144586247799886E+00
pair_coeff 14    68     1.151625537581669190E-01 4.122229798668242573E+00
pair_coeff 15    68     2.395419512585078570E-01 3.712216383328954539E+00
pair_coeff 16    68     3.481366916176150683E-01 3.562138516112925313E+00
pair_coeff 17    68     4.202527500668978289E-01 3.544049049891872194E+00
pair_coeff 18   68     2.588188757285546648E-01 3.659102893548325852E+00
pair_coeff 19    68     2.650569899912606497E-01 3.558940297566233646E+00
pair_coeff 20     68     1.286302593565866181E-01 2.834666362961839603E+00
pair_coeff 21      68     0.000000000000000000E+00 0.000000000000000000E+00
pair_coeff 22    68     0.000000000000000000E+00 0.000000000000000000E+00
pair_coeff 23      68     5.161180300714267588E-01 3.346404243736659900E+00
pair_coeff 24   68     1.091960338095528060E+00 2.267299599251422659E+00
pair_coeff 25   68     1.091960338095528060E+00 2.267299599251422659E+00
pair_coeff 26     68     0.000000000000000000E+00 0.000000000000000000E+00
pair_coeff 27   68     8.045846089363817288E-01 2.385694166082639622E+00
pair_coeff 28   68     2.090408838393064406E-01 2.558337624572998514E+00
pair_coeff 29   68     2.661772960911888974E-01 3.086094440015471729E+00
pair_coeff 30     68     3.731826988633197284E-01 3.397682079611450412E+00
pair_coeff 31      68     2.524358768718786838E-01 3.154960092081345202E+00
pair_coeff 32     68     4.189112847674477114E-01 3.427432675553883090E+00
pair_coeff 33     68     6.388534234294728220E-01 3.515682714787159213E+00
pair_coeff 34   68     3.770630126787305469E-01 3.491738260580458331E+00
pair_coeff 35   68     2.772595092901040115E-01 3.279596411493302277E+00
pair_coeff 36    68     5.459272459301211383E-02 3.250679875779549644E+00
pair_coeff 37    68     3.079326428276232264E-01 3.723746973975487151E+00
pair_coeff 38   68     2.439200342906357177E-01 3.392803501821101797E+00
pair_coeff 39  68     4.185092246687046047E-01 3.412676863417832607E+00
pair_coeff 40   68     1.074676291512047521E-01 2.730504859465051837E+00
pair_coeff 41  68     4.258000265972445297E-01 3.471666099725899457E+00
pair_coeff 42  68     3.481366916176150683E-01 3.562138516112925313E+00
pair_coeff 43  68     4.896090631997686571E-01 2.983985758054453097E+00
pair_coeff 44   68     1.783744882218230021E-01 3.574465939406219039E+00
pair_coeff 45  68     3.977848573281826949E-01 3.416430127342078293E+00
pair_coeff 46   68     2.201745718076525138E-01 3.227685340208292786E+00
pair_coeff 47   68     2.381744515327116618E-01 3.373310242361340361E+00
pair_coeff 48  68     2.615878367038697028E-01 3.642958757134699077E+00
pair_coeff 49   68     3.445971896229899079E-01 3.162881024422723453E+00
pair_coeff 50  68     2.478270737383122535E-01 3.563085650127790327E+00
pair_coeff 51  68     3.504466124968692586E-01 3.165629015669813917E+00
pair_coeff 52  68     3.152672741451525984E-01 3.317119483865758500E+00
pair_coeff 53   68     3.481366916176150683E-01 3.562138516112925313E+00
pair_coeff 54      68     6.995537233959522316E-01 3.610139393576149658E+00
pair_coeff 55  68     4.392414353153730744E-01 3.327197243460355836E+00
pair_coeff 56      68     1.969066010196180716E-01 3.482000009875157343E+00
pair_coeff 57     68     5.161180300714267588E-01 3.346404243736659900E+00
pair_coeff 58   68     0.000000000000000000E+00 0.000000000000000000E+00
pair_coeff 59  68     4.392414353153730744E-01 3.327197243460355836E+00
pair_coeff 60  68     5.828109208179663714E-01 3.633666223556641928E+00
pair_coeff 61  68     2.642763169106269738E-01 3.392901247311097990E+00
pair_coeff 62   68     2.860267218407508971E-01 3.634578464727707292E+00
pair_coeff 63   68     2.072602877620044470E-01 3.452386935315056249E+00
pair_coeff 64   68     3.785276683511555329E-01 3.085178649883229873E+00
pair_coeff 65   68     2.888292953006066366E-01 3.711019072424234899E+00
pair_coeff 66   68     3.585019450441149225E-01 3.513030089156019553E+00
pair_coeff 67   68     2.643487071424846513E-01 3.239640960354239319E+00
pair_coeff 68     68     5.847858712655799041E-01 3.385567464934501558E+00
pair_coeff 1      69      4.228207516674085675E-01 3.056859151858752899E+00
pair_coeff 2     69      4.910239828909634396E-01 2.981611307668237565E+00
pair_coeff 3     69      3.843825015158260361E-01 3.105805176400184386E+00
pair_coeff 4     69      3.843825015158260361E-01 3.105805176400184386E+00
pair_coeff 5     69      3.014499067379129427E-01 3.273761725414885415E+00
pair_coeff 6      69      2.990356735930130294E-01 3.258641081240354787E+00
pair_coeff 7     69      2.990356735930130294E-01 3.258641081240354787E+00
pair_coeff 8     69      2.990356735930130294E-01 3.258641081240354787E+00
pair_coeff 9     69      2.990356735930130294E-01 3.258641081240354787E+00
pair_coeff 10     69      2.990356735930130294E-01 3.258641081240354787E+00
pair_coeff 11     69      2.990356735930130294E-01 3.258641081240354787E+00
pair_coeff 12      69      1.969066010196180716E-01 3.482000009875157343E+00
pair_coeff 13    69      3.126865710011655919E-02 4.741144586247799886E+00
pair_coeff 14    69      1.151625537581669190E-01 4.122229798668242573E+00
pair_coeff 15    69      2.395419512585078570E-01 3.712216383328954539E+00
pair_coeff 16    69      3.481366916176150683E-01 3.562138516112925313E+00
pair_coeff 17    69      4.202527500668978289E-01 3.544049049891872194E+00
pair_coeff 18   69      2.588188757285546648E-01 3.659102893548325852E+00
pair_coeff 19    69      2.650569899912606497E-01 3.558940297566233646E+00
pair_coeff 20     69      1.286302593565866181E-01 2.834666362961839603E+00
pair_coeff 21      69      0.000000000000000000E+00 0.000000000000000000E+00
pair_coeff 22    69      0.000000000000000000E+00 0.000000000000000000E+00
pair_coeff 23      69      5.161180300714267588E-01 3.346404243736659900E+00
pair_coeff 24   69      1.091960338095528060E+00 2.267299599251422659E+00
pair_coeff 25   69      1.091960338095528060E+00 2.267299599251422659E+00
pair_coeff 26     69      0.000000000000000000E+00 0.000000000000000000E+00
pair_coeff 27   69      8.045846089363817288E-01 2.385694166082639622E+00
pair_coeff 28   69      2.090408838393064406E-01 2.558337624572998514E+00
pair_coeff 29   69      2.661772960911888974E-01 3.086094440015471729E+00
pair_coeff 30     69      3.731826988633197284E-01 3.397682079611450412E+00
pair_coeff 31      69      2.524358768718786838E-01 3.154960092081345202E+00
pair_coeff 32     69      4.189112847674477114E-01 3.427432675553883090E+00
pair_coeff 33     69      6.388534234294728220E-01 3.515682714787159213E+00
pair_coeff 34   69      3.770630126787305469E-01 3.491738260580458331E+00
pair_coeff 35   69      2.772595092901040115E-01 3.279596411493302277E+00
pair_coeff 36    69      5.459272459301211383E-02 3.250679875779549644E+00
pair_coeff 37    69      3.079326428276232264E-01 3.723746973975487151E+00
pair_coeff 38   69      2.439200342906357177E-01 3.392803501821101797E+00
pair_coeff 39  69      4.185092246687046047E-01 3.412676863417832607E+00
pair_coeff 40   69      1.074676291512047521E-01 2.730504859465051837E+00
pair_coeff 41  69      4.258000265972445297E-01 3.471666099725899457E+00
pair_coeff 42  69      3.481366916176150683E-01 3.562138516112925313E+00
pair_coeff 43  69      4.896090631997686571E-01 2.983985758054453097E+00
pair_coeff 44   69      1.783744882218230021E-01 3.574465939406219039E+00
pair_coeff 45  69      3.977848573281826949E-01 3.416430127342078293E+00
pair_coeff 46   69      2.201745718076525138E-01 3.227685340208292786E+00
pair_coeff 47   69      2.381744515327116618E-01 3.373310242361340361E+00
pair_coeff 48  69      2.615878367038697028E-01 3.642958757134699077E+00
pair_coeff 49   69      3.445971896229899079E-01 3.162881024422723453E+00
pair_coeff 50  69      2.478270737383122535E-01 3.563085650127790327E+00
pair_coeff 51  69      3.504466124968692586E-01 3.165629015669813917E+00
pair_coeff 52  69      3.152672741451525984E-01 3.317119483865758500E+00
pair_coeff 53   69      3.481366916176150683E-01 3.562138516112925313E+00
pair_coeff 54      69      6.995537233959522316E-01 3.610139393576149658E+00
pair_coeff 55  69      4.392414353153730744E-01 3.327197243460355836E+00
pair_coeff 56      69      1.969066010196180716E-01 3.482000009875157343E+00
pair_coeff 57     69      5.161180300714267588E-01 3.346404243736659900E+00
pair_coeff 58   69      0.000000000000000000E+00 0.000000000000000000E+00
pair_coeff 59  69      4.392414353153730744E-01 3.327197243460355836E+00
pair_coeff 60  69      5.828109208179663714E-01 3.633666223556641928E+00
pair_coeff 61  69      2.642763169106269738E-01 3.392901247311097990E+00
pair_coeff 62   69      2.860267218407508971E-01 3.634578464727707292E+00
pair_coeff 63   69      2.072602877620044470E-01 3.452386935315056249E+00
pair_coeff 64   69      3.785276683511555329E-01 3.085178649883229873E+00
pair_coeff 65   69      2.888292953006066366E-01 3.711019072424234899E+00
pair_coeff 66   69      3.585019450441149225E-01 3.513030089156019553E+00
pair_coeff 67   69      2.643487071424846513E-01 3.239640960354239319E+00
pair_coeff 68     69      5.847858712655799041E-01 3.385567464934501558E+00
pair_coeff 69      69      5.847858712655799041E-01 3.385567464934501558E+00

#           bond_id     k_harmonic               r0
bond_coeff 1    3.752390057361376989E+02 1.0000000000E+00
bond_coeff 2    4.469407265774378857E+02 1.0000000000E+00
bond_coeff 3    3.492741395793498782E+02 1.0900000000E+00
bond_coeff 4    1.109292543021032543E+03 1.1200000000E+00
bond_coeff 5    6.002423518164436018E+02 1.2300000000E+00
bond_coeff 6    5.004182600382409305E+02 1.2500000000E+00
bond_coeff 7    4.997323135755258363E+02 1.3200000000E+00
bond_coeff 8    3.750034177820267587E+02 1.3300000000E+00
bond_coeff 9    4.481438814531548473E+02 1.3300000000E+00
bond_coeff 10   4.988771510516252761E+02 1.3300000000E+00
bond_coeff 11   4.506166347992351575E+02 1.3400000000E+00
bond_coeff 12   5.021156787762906788E+02 1.3400000000E+00
bond_coeff 13   4.509063097514340939E+02 1.3600000000E+00
bond_coeff 14   5.006787762906309922E+02 1.3800000000E+00
bond_coeff 15   3.999040630975143245E+02 1.3900000000E+00
bond_coeff 16   4.987256214149139169E+02 1.3900000000E+00
bond_coeff 17   4.000573613766730432E+02 1.4000000000E+00
bond_coeff 18   3.997916347992352257E+02 1.4300000000E+00
bond_coeff 19   4.501321462715105213E+02 1.4300000000E+00
bond_coeff 20   3.002216180688336635E+02 1.4350000000E+00
bond_coeff 21   4.498431883365200861E+02 1.4700000000E+00
bond_coeff 22   2.999759082217973400E+02 1.4800000000E+00
bond_coeff 23   3.999678776290630822E+02 1.4800000000E+00
bond_coeff 24   4.502256214149139737E+02 1.4800000000E+00
bond_coeff 25   4.501075525812619276E+02 1.5000000000E+00
bond_coeff 26   2.998439770554493293E+02 1.5200000000E+00
bond_coeff 27   4.000342973231357746E+02 1.5300000000E+00
bond_coeff 28   2.998509560229445583E+02 1.6100000000E+00
bond_coeff 29   2.997267686424473823E+02 1.6300000000E+00
bond_coeff 30   2.059762906309751429E+02 1.7800000000E+00
bond_coeff 31   4.498158699808795404E+02 1.7800000000E+00
bond_coeff 32   4.498283460803058915E+02 1.8300000000E+00
bond_coeff 33   3.000447179732313998E+02 1.8700000000E+00
bond_coeff 34   5.996787762906310348E+01 1.9800000000E+00
bond_coeff 35   6.003824091778202643E+01 2.0000000000E+00
bond_coeff 36   5.003070745697896768E+02 2.0400000000E+00
bond_coeff 37   6.303570745697896882E+01 2.2100000000E+00
bond_coeff 38   5.544933078393881942E+02 1.0000000000E+00
bond_coeff 39   3.499282982791586960E+02 1.1000000000E+00
bond_coeff 40   5.997939651051625560E+02 1.7580000000E+00
bond_coeff 41   4.498287762906309695E+02 1.5300000000E+00
bond_coeff 42   4.443412045889101023E+02 1.9379900000E+00
bond_coeff 43   5.996787762906310491E+02 1.7600000000E+00
bond_coeff 44   5.010264698852772653E+02 1.2650000000E+00
bond_coeff 45   4.486555927342256496E+02 1.3500000000E+00
bond_coeff 46   5.551285014340344333E+02 1.6329900000E+00
bond_coeff 47   3.502490798279158639E+02 2.3383900000E+00
bond_coeff 48   6.001610301147227347E+02 2.9028300000E+00
bond_coeff 49   4.458838312619503199E+02 2.7938800000E+00
bond_coeff 50   4.438154039196940630E+02 2.9118900000E+00
bond_coeff 51   4.093283460803059484E+02 2.0770000000E+00
bond_coeff 52   6.001731835564053199E+02 2.8740700000E+00
bond_coeff 53   8.843212237093690931E+01 1.1000000000E+00
bond_coeff 54   5.616634799235181674E+01 1.8400000000E+00
bond_coeff 55   5.138623326959847191E+02 1.0100000000E+00
bond_coeff 56   3.107074569789675138E+02 1.4100000000E+00
bond_coeff 57   4.421606118546845323E+02 1.0200000000E+00
bond_coeff 58   2.390057361376672986E+02 1.4600000000E+00
bond_coeff 59   5.138623326959847191E+02 1.2900000000E+00
bond_coeff 60   4.421606118546845323E+02 9.7200000000E-01
bond_coeff 61   8.126195028680688210E+02 1.2200000000E+00
bond_coeff 62   4.660611854684512423E+02 1.2200000000E+00
bond_coeff 63   2.390057361376672986E+02 1.5400000000E+00
bond_coeff 64   1.792543021032504669E+02 1.5600000000E+00
bond_coeff 65   2.270554493307839437E+02 1.5400000000E+00
bond_coeff 66   1.063575525812619560E+02 1.7600000000E+00
bond_coeff 67   1.314531548757170185E+02 1.6900000000E+00
bond_coeff 68   2.031548757170172053E+02 1.7500000000E+00
bond_coeff 69   2.031548757170172053E+02 1.5100000000E+00
bond_coeff 70   1.434034416826003735E+02 1.5700000000E+00
bond_coeff 71   1.792543021032504669E+02 9.7100000000E-01
bond_coeff 72   1.912045889101338503E+02 1.5000000000E+00
bond_coeff 73   2.629063097514340370E+02 1.4500000000E+00
bond_coeff 74   5.497131931166347840E+02 1.5200000000E+00
bond_coeff 75   8.365200764818355594E+01 1.0300000000E+00
bond_coeff 76   1.912045889101338503E+02 1.7400000000E+00
bond_coeff 77   1.912045889101338503E+02 1.7200000000E+00
bond_coeff 78   2.270554493307839437E+02 1.6400000000E+00
bond_coeff 79   2.031548757170172053E+02 1.6700000000E+00
bond_coeff 80   1.912045889101338503E+02 1.6600000000E+00
bond_coeff 81   2.151051625239005887E+02 1.6500000000E+00
bond_coeff 82   5.138623326959847191E+02 1.3100000000E+00
bond_coeff 83   1.553537284894837569E+02 1.0100000000E+00
bond_coeff 84   3.585086042065009337E+01 1.8900000000E+00
bond_coeff 85   1.015774378585086026E+02 1.9300000000E+00
bond_coeff 86   1.553537284894837569E+02 1.3600000000E+00
bond_coeff 87   1.673040152963671119E+02 1.7900000000E+00
bond_coeff 88   1.147227533460803102E+02 1.3500000000E+00
bond_coeff 89   1.553537284894837569E+02 1.3900000000E+00
bond_coeff 90   2.031548757170172053E+02 1.3800000000E+00
bond_coeff 91   2.270554493307839437E+02 9.8300000000E-01
bond_coeff 92   1.553537284894837569E+02 1.3000000000E+00
bond_coeff 93   4.182600382409177655E+02 1.0800000000E+00
bond_coeff 94   1.553537284894837569E+02 1.9000000000E+00
bond_coeff 95   1.314531548757170185E+03 1.1600000000E+00
bond_coeff 96   1.434034416826003735E+02 1.8000000000E+00
bond_coeff 97   1.553537284894837569E+02 1.4200000000E+00
bond_coeff 98   4.780114722753345973E+02 9.8400000000E-01
bond_coeff 99   1.195028680688336493E+02 1.0800000000E+00
bond_coeff 100  1.195028680688336493E+02 1.9100000000E+00
bond_coeff 101  4.182600382409177655E+02 1.0300000000E+00
bond_coeff 102  5.258126195028680741E+02 1.2800000000E+00
bond_coeff 103  1.314531548757170185E+02 1.2200000000E+00
bond_coeff 104  1.434034416826003735E+02 1.1100000000E+00
bond_coeff 105  1.195028680688336635E+03 1.2100000000E+00
bond_coeff 106  4.660611854684512423E+02 1.0700000000E+00
bond_coeff 107  9.560229445506691945E+02 1.2100000000E+00
bond_coeff 108  6.931166347992351575E+02 1.2100000000E+00
bond_coeff 109  8.723709369024857097E+01 1.8500000000E+00
bond_coeff 110  3.943594646271510555E+02 1.1100000000E+00
bond_coeff 111  1.099426386233269568E+02 2.0900000000E+00
bond_coeff 112  1.314531548757170185E+02 1.8200000000E+00
bond_coeff 113  9.918738049713192595E+01 1.9600000000E+00
bond_coeff 114  5.616634799235181674E+01 1.8600000000E+00
bond_coeff 115  1.673040152963671119E+02 1.2100000000E+00
bond_coeff 116  1.673040152963671119E+02 1.2800000000E+00
bond_coeff 117  1.434034416826003735E+02 1.7100000000E+00
bond_coeff 118  1.314531548757170185E+02 1.6000000000E+00
bond_coeff 119  4.541108986615678873E+02 1.2100000000E+00
bond_coeff 120  4.182600382409177797E+01 1.6100000000E+00
bond_coeff 121  1.314531548757170185E+02 1.9400000000E+00
bond_coeff 122  1.553537284894837569E+02 1.5900000000E+00
bond_coeff 123  1.434034416826003735E+02 2.1000000000E+00
bond_coeff 124  1.195028680688336493E+02 2.1200000000E+00
bond_coeff 125  5.736137667304015508E+01 2.1300000000E+00
bond_coeff 126  2.031548757170172053E+02 1.2600000000E+00
bond_coeff 127  1.195028680688336635E+03 1.1400000000E+00
bond_coeff 128  1.912045889101338503E+02 1.2300000000E+00
bond_coeff 129  7.887189292543021111E+02 1.3000000000E+00
bond_coeff 130  2.390057361376672986E+02 1.3100000000E+00
bond_coeff 131  5.975143403441682466E+01 2.0400000000E+00
bond_coeff 132  8.245697896749521760E+01 1.3400000000E+00
bond_coeff 133  6.214149139579350276E+02 9.3800000000E-01
bond_coeff 134  3.107074569789675138E+02 1.1600000000E+00
bond_coeff 135  3.465583173996176214E+01 2.0700000000E+00
bond_coeff 136  6.094646271510516300E+01 1.1600000000E+00
bond_coeff 137  9.321223709369024846E+01 2.1600000000E+00
bond_coeff 138  4.302103250478011631E+01 2.2300000000E+00
bond_coeff 139  2.390057361376673128E+01 2.0500000000E+00
bond_coeff 140  8.962715105162524196E+02 1.1900000000E+00
bond_coeff 141  7.289674952198853362E+02 1.4700000000E+00
bond_coeff 142  3.943594646271510555E+02 1.5700000000E+00
bond_coeff 143  1.195028680688336635E+03 1.1800000000E+00
bond_coeff 144  5.497131931166347840E+01 1.8700000000E+00
bond_coeff 145  1.063575525812619617E+03 1.1700000000E+00
bond_coeff 146  2.151051625239005887E+02 1.1300000000E+00
bond_coeff 147  5.975143403441682466E+01 2.0200000000E+00
bond_coeff 148  1.792543021032504669E+02 1.0700000000E+00
bond_coeff 149  2.509560229445506820E+02 1.1400000000E+00
bond_coeff 150  1.553537284894837569E+02 1.0600000000E+00
bond_coeff 151  5.377629063097514290E+02 1.4600000000E+00
bond_coeff 152  8.126195028680688210E+02 1.1700000000E+00
bond_coeff 153  9.201720841300191012E+01 2.1500000000E+00
bond_coeff 154  2.390057361376672986E+02 1.0400000000E+00
bond_coeff 155  6.094646271510516300E+01 1.4000000000E+00
bond_coeff 156  1.314531548757170185E+03 1.1100000000E+00
bond_coeff 157  4.660611854684512423E+02 1.5600000000E+00
bond_coeff 158  7.528680688336520461E+02 1.4900000000E+00
bond_coeff 159  5.019120458891013641E+02 1.5400000000E+00
bond_coeff 160  3.585086042065009337E+01 2.1700000000E+00
bond_coeff 161  3.585086042065009337E+01 2.2700000000E+00
bond_coeff 162  6.692160611854684475E+02 1.4500000000E+00
bond_coeff 163  7.648183556405354011E+02 1.2500000000E+00
bond_coeff 164  8.484703632887188860E+02 1.2700000000E+00
bond_coeff 165  5.616634799235181390E+02 1.1600000000E+00
bond_coeff 166  1.434034416826003735E+03 1.1400000000E+00
bond_coeff 167  5.019120458891013641E+02 1.1700000000E+00
bond_coeff 168  5.377629063097514290E+02 1.1900000000E+00
bond_coeff 169  9.201720841300191296E+02 1.1400000000E+00
bond_coeff 170  2.270554493307839437E+02 1.2400000000E+00
bond_coeff 171  1.434034416826003735E+03 1.1300000000E+00
bond_coeff 172  8.962715105162523344E+01 2.9100000000E+00
bond_coeff 173  5.736137667304015508E+01 2.2400000000E+00
bond_coeff 174  4.182600382409177655E+02 7.4300000000E-01
bond_coeff 175  2.390057361376672986E+02 1.2000000000E+00
bond_coeff 176  1.111376673040152951E+02 2.3300000000E+00
bond_coeff 177  9.679732313575526348E+01 2.4200000000E+00
bond_coeff 178  8.365200764818355594E+01 1.3200000000E+00
bond_coeff 179  1.159177820267686457E+03 1.2000000000E+00
bond_coeff 180  1.314531548757170185E+03 1.2000000000E+00
bond_coeff 181  4.302103250478011773E+02 1.5800000000E+00
bond_coeff 182  5.377629063097514717E+01 1.4700000000E+00
bond_coeff 183  1.553537284894837445E+00 2.7700000000E+00
bond_coeff 184  5.138623326959846693E+00 2.2500000000E+00
bond_coeff 185  1.003824091778202643E+02 2.1800000000E+00
bond_coeff 186  5.019120458891013214E+01 1.5200000000E+00
bond_coeff 187  9.321223709369024846E+01 2.1900000000E+00
bond_coeff 188  2.748565965583173920E+01 1.4800000000E+00
bond_coeff 189  1.912045889101338389E+03 1.0700000000E+00
bond_coeff 190  8.604206500956022907E+00 2.8000000000E+00
bond_coeff 191  8.723709369024857097E+01 2.5200000000E+00
bond_coeff 192  6.692160611854685026E-01 2.7900000000E+00
bond_coeff 193  8.126195028680688210E+02 1.1600000000E+00
bond_coeff 194  1.792543021032504846E+00 2.6800000000E+00
bond_coeff 195  4.063097514340344105E+02 1.5900000000E+00
bond_coeff 196  1.195028680688336493E+02 1.1800000000E+00
bond_coeff 197  3.465583173996176214E+01 2.5400000000E+00
bond_coeff 198  1.792543021032504839E+03 1.1000000000E+00
bond_coeff 199  8.245697896749521760E+02 1.2900000000E+00
bond_coeff 200  3.346080305927342380E+01 2.4400000000E+00
bond_coeff 201  1.075525812619502943E+02 2.4100000000E+00
bond_coeff 202  1.123326959847036335E+02 2.3600000000E+00
bond_coeff 203  2.031548757170171982E+01 1.4300000000E+00
bond_coeff 204  2.270554493307839206E+00 2.5700000000E+00
bond_coeff 205  1.912045889101338503E+01 2.4700000000E+00
bond_coeff 206  7.648183556405353523E-01 2.7100000000E+00
bond_coeff 207  1.553537284894837512E+03 1.1200000000E+00
bond_coeff 208  3.704588910133843171E+00 2.7500000000E+00
bond_coeff 209  5.019120458891013641E+02 1.1400000000E+00
bond_coeff 210  7.170172084130018719E-01 2.8600000000E+00
bond_coeff 211  1.051625239005736212E+01 2.6400000000E+00
bond_coeff 212  1.912045889101338389E+03 9.8500000000E-01
bond_coeff 213  1.912045889101338547E+00 2.6100000000E+00
bond_coeff 214  7.409177820267686343E+00 2.6200000000E+00
bond_coeff 215  5.975143403441682466E+01 2.4600000000E+00
bond_coeff 216  3.585086042065009693E+00 2.6600000000E+00
bond_coeff 217  1.314531548757170265E+00 2.7200000000E+00
bond_coeff 218  5.855640535372849342E+01 1.6300000000E+00
bond_coeff 219  5.736137667304014940E+02 1.1200000000E+00
bond_coeff 220  3.704588910133843171E+01 2.3200000000E+00
bond_coeff 221  1.673040152963671190E+01 1.4400000000E+00
bond_coeff 222  1.553537284894837512E+03 1.1600000000E+00
bond_coeff 223  7.170172084130019385E+00 2.6900000000E+00
bond_coeff 224  1.003824091778202643E+01 2.4900000000E+00
bond_coeff 225  3.226577437858508812E+00 2.9200000000E+00
bond_coeff 226  8.245697896749522027E-01 2.2900000000E+00
bond_coeff 227  9.799235181644359471E+00 2.4000000000E+00
bond_coeff 228  1.039674952198852864E+00 2.3700000000E+00
bond_coeff 229  1.553537284894837445E+00 2.9400000000E+00
bond_coeff 230  5.855640535372849342E+00 2.9500000000E+00
bond_coeff 231  1.673040152963671146E+00 2.9600000000E+00
bond_coeff 232  1.314531548757170119E-02 2.5600000000E+00
bond_coeff 233  5.258126195028681060E+00 2.5900000000E+00
bond_coeff 234  1.553537284894837533E+01 2.3800000000E+00
bond_coeff 235  8.365200764818355310E+02 1.1200000000E+00
bond_coeff 236  1.912045889101338547E+00 2.5000000000E+00
bond_coeff 237  2.390057361376673128E+00 2.3000000000E+00
bond_coeff 238  5.855640535372848490E+02 1.0400000000E+00
bond_coeff 239  3.346080305927342291E+00 2.9900000000E+00
bond_coeff 240  9.679732313575526437E-01 2.3400000000E+00
bond_coeff 241  1.075525812619502863E+00 2.9800000000E+00
bond_coeff 242  2.270554493307839206E+00 2.7400000000E+00
bond_coeff 243  1.063575525812619617E+03 1.1600000000E+00
bond_coeff 244  8.126195028680688210E+02 1.5000000000E+00
bond_coeff 245  1.314531548757170265E+00 2.8400000000E+00
bond_coeff 246  3.226577437858508812E-01 2.8200000000E+00
bond_coeff 247  9.082217973231357746E+02 1.2300000000E+00
bond_coeff 248  4.660611854684512423E+02 1.0500000000E+00
bond_coeff 249  3.346080305927342291E+00 2.8800000000E+00
bond_coeff 250  1.434034416826003735E+03 1.1800000000E+00
bond_coeff 251  1.673040152963671062E+03 1.1500000000E+00
bond_coeff 252  6.333652007648183258E+00 2.9000000000E+00
bond_coeff 253  1.027724665391969438E+03 1.2400000000E+00
bond_coeff 254  4.182600382409177655E+02 1.9000000000E+00
bond_coeff 255  2.270554493307839493E+03 1.0800000000E+00
bond_coeff 256  1.434034416826003735E+03 1.2100000000E+00
bond_coeff 257  7.648183556405354011E+02 9.7500000000E-01

# Dummy bond for extra excluded interactions
bond_coeff 258  0.000000000000000000E+00 0.0000000000E+00

#            angle_id     k_harmonic               theta0
angle_coeff 1    4.531159764110539356E+01 9.0000000000E+01
angle_coeff 2    5.009172539172424621E+01 9.0000000000E+01
angle_coeff 3    4.777119165305969517E+01 9.6000000000E+01
angle_coeff 4    5.495507667712937661E+01 1.0000000000E+02
angle_coeff 5    4.755587910082016379E+01 1.0300000000E+02
angle_coeff 6    5.503449877865421058E+01 1.0400000000E+02
angle_coeff 7    5.017089249514589966E+01 1.0800000000E+02
angle_coeff 8    3.017313270271808179E+01 1.0950000000E+02
angle_coeff 9    3.388969514161131968E+01 1.0950000000E+02
angle_coeff 10   4.026093651823891406E+01 1.0950000000E+02
angle_coeff 11   4.503936558918574207E+01 1.0950000000E+02
angle_coeff 12   4.769404884227261476E+01 1.0950000000E+02
angle_coeff 13   5.512715332021083015E+01 1.0950000000E+02
angle_coeff 14   4.763495597414375737E+01 1.0960000000E+02
angle_coeff 15   5.511390518798809524E+01 1.1100000000E+02
angle_coeff 16   5.509974690868934033E+01 1.1300000000E+02
angle_coeff 17   4.824003116558784221E+00 1.1500000000E+02
angle_coeff 18   4.506986336232746027E+01 1.1500000000E+02
angle_coeff 19   5.979372060785910747E+01 1.1500000000E+02
angle_coeff 20   4.480849815265150937E+01 1.1600000000E+02
angle_coeff 21   5.977192415460783081E+01 1.1600000000E+02
angle_coeff 22   6.016393470016820544E+01 1.1700000000E+02
angle_coeff 23   3.487998772914675527E+01 1.2000000000E+02
angle_coeff 24   3.980949179939617721E+01 1.2000000000E+02
angle_coeff 25   4.518712718236594128E+01 1.2000000000E+02
angle_coeff 26   4.742781120730183630E+01 1.2000000000E+02
angle_coeff 27   5.011662889878671479E+01 1.2000000000E+02
angle_coeff 28   5.997562448553279069E+01 1.2000000000E+02
angle_coeff 29   6.983461614923112393E+01 1.2000000000E+02
angle_coeff 30   6.007257868741400131E+01 1.2100000000E+02
angle_coeff 31   6.009101308875088421E+01 1.2200000000E+02
angle_coeff 32   3.481463446143215634E+01 1.2300000000E+02
angle_coeff 33   5.989285210123679093E+01 1.2400000000E+02
angle_coeff 34   3.000747691187498489E+01 1.2500000000E+02
angle_coeff 35   6.007786695576940872E+01 1.2500000000E+02
angle_coeff 36   4.491393398374964363E+01 1.2600000000E+02
angle_coeff 37   4.999795670460907360E+01 1.2600000000E+02
angle_coeff 38   6.016599430023244111E+01 1.2600000000E+02
angle_coeff 39   5.011888465123802661E+01 1.3200000000E+02
angle_coeff 40   4.751869253127933490E+01 1.5500000000E+02
angle_coeff 41   2.849707999314575346E+01 1.8000000000E+02
angle_coeff 42   4.599505140337510767E+01 1.0950000000E+02
angle_coeff 43   5.247673834306662144E+01 1.0757000000E+02
angle_coeff 44   6.547197129315762254E+01 1.1130000000E+02
angle_coeff 45   5.501891643302533197E+01 9.7400000000E+01
angle_coeff 46   5.502468723625295155E+01 1.0675000000E+02
angle_coeff 47   4.750189404085062250E+01 1.0853000000E+02
angle_coeff 48   6.553349252783840484E+01 1.0950000000E+02
angle_coeff 49   5.495659489660530284E+01 1.0760000000E+02
angle_coeff 50   4.748167072974365510E+01 1.0950000000E+02
angle_coeff 51   5.499310277888685761E+01 1.1030000000E+02
angle_coeff 52   5.502340047659377120E+01 1.1140000000E+02
angle_coeff 53   6.004396397718814882E+01 1.1720000000E+02
angle_coeff 54   6.000230905626986555E+01 1.2140000000E+02
angle_coeff 55   4.824003116558784399E+01 1.8000000000E+02
angle_coeff 56   1.804601961048520877E+02 1.0900000000E+02
angle_coeff 57   1.922293393290815686E+02 1.0600000000E+02
angle_coeff 58   1.451527664321636166E+02 1.2600000000E+02
angle_coeff 59   1.451527664321636166E+02 9.6200000000E+01
angle_coeff 60   1.569219096563931259E+02 1.1400000000E+02
angle_coeff 61   2.039984825533110495E+02 1.1900000000E+02
angle_coeff 62   2.393059122259994922E+02 1.3000000000E+02
angle_coeff 63   2.981516283471469251E+02 1.0700000000E+02
angle_coeff 64   1.569219096563931259E+02 1.3400000000E+02
angle_coeff 65   2.393059122259994922E+02 1.0100000000E+02
angle_coeff 66   2.863824851229174442E+02 1.1300000000E+02
angle_coeff 67   3.687664876925238104E+02 1.3400000000E+02
angle_coeff 68   3.569973444682943295E+02 1.1900000000E+02
angle_coeff 69   3.334590580198353678E+02 1.2600000000E+02
angle_coeff 70   2.510750554502289731E+02 8.9600000000E+01
angle_coeff 71   3.805356309167532913E+02 1.1400000000E+02
angle_coeff 72   2.863824851229174442E+02 1.3500000000E+02
angle_coeff 73   1.451527664321636166E+02 8.8300000000E+01
angle_coeff 74   1.333836232079341642E+02 6.0000000000E+01
angle_coeff 75   3.805356309167532913E+02 1.7900000000E+02
angle_coeff 76   2.510750554502289731E+02 1.8000000000E+02
angle_coeff 77   4.707657289691792926E+02 1.7800000000E+02
angle_coeff 78   4.707657289691793068E+01 5.9900000000E+01
angle_coeff 79   4.707657289691793068E+01 6.0300000000E+01
angle_coeff 80   2.510750554502289731E+02 1.2400000000E+02
angle_coeff 81   7.061485934537689673E+02 1.1800000000E+02
angle_coeff 82   1.176914322422948231E+02 1.4400000000E+02
angle_coeff 83   6.276876386255725038E+02 1.2300000000E+02
angle_coeff 84   4.707657289691792926E+02 1.1800000000E+02
angle_coeff 85   3.334590580198353678E+02 9.4800000000E+01
angle_coeff 86   9.023009805242604386E+01 1.7500000000E+02
angle_coeff 87   1.569219096563931259E+02 8.2800000000E+01
angle_coeff 88   1.176914322422948231E+02 7.7600000000E+01
angle_coeff 89   2.393059122259994922E+02 1.4500000000E+02
angle_coeff 90   2.510750554502289731E+02 5.0800000000E+01
angle_coeff 91   3.805356309167532913E+02 1.0400000000E+02
angle_coeff 92   2.628441986744584824E+02 8.4400000000E+01
angle_coeff 93   2.157676257775405304E+02 6.3300000000E+01
angle_coeff 94   2.157676257775405304E+02 6.1000000000E+01
angle_coeff 95   2.981516283471469251E+02 1.7300000000E+02
angle_coeff 96   1.922293393290815686E+02 1.7300000000E+02
angle_coeff 97   8.238400256960638046E+01 5.0900000000E+01
angle_coeff 98   4.315352515550810608E+02 1.2700000000E+02
angle_coeff 99   6.276876386255724327E+01 6.7800000000E+01
angle_coeff 100  1.569219096563931259E+02 1.8000000000E+02
angle_coeff 101  5.884571612114741583E+02 1.1800000000E+02
angle_coeff 102  3.017313270271808179E+01 1.1000000000E+02
angle_coeff 103  2.275367690017699829E+02 9.4800000000E+01
angle_coeff 104  4.315352515550810608E+02 1.7300000000E+02
angle_coeff 105  3.452282012440647918E+01 7.8500000000E+01
angle_coeff 106  7.061485934537689957E+01 1.3800000000E+02
angle_coeff 107  7.061485934537689957E+01 1.6800000000E+02
angle_coeff 108  1.569219096563931259E+02 1.6700000000E+02
angle_coeff 109  1.804601961048520664E+01 1.4900000000E+02
angle_coeff 110  3.334590580198353678E+02 1.4400000000E+02
angle_coeff 111  3.569973444682943295E+02 1.4800000000E+02
angle_coeff 112  3.216899147956058300E+02 1.4400000000E+02
angle_coeff 113  3.569973444682943295E+02 1.4800000000E+02
angle_coeff 114  3.216899147956058300E+02 1.4700000000E+02
angle_coeff 115  3.334590580198353678E+02 1.4400000000E+02
angle_coeff 116  5.099962063832776039E+03 6.0800000000E+01
angle_coeff 117  1.451527664321636394E+03 6.8000000000E+01
angle_coeff 118  2.981516283471469251E+02 1.6100000000E+02
angle_coeff 119  1.569219096563931259E+02 1.5500000000E+02
angle_coeff 120  3.099207715713764060E+02 1.5400000000E+02
angle_coeff 121  2.157676257775405304E+02 7.5300000000E+01
angle_coeff 122  3.099207715713764060E+02 6.4700000000E+01
angle_coeff 123  5.492266837973758129E+02 1.7300000000E+02
angle_coeff 124  3.334590580198353564E+03 4.5800000000E+01
angle_coeff 125  8.630705031101621216E+02 1.2300000000E+02
angle_coeff 126  5.492266837973758129E+02 1.2300000000E+02
angle_coeff 127  4.707657289691792926E+02 1.6600000000E+02
angle_coeff 128  3.805356309167532913E+02 1.6600000000E+02
angle_coeff 129  2.039984825533110495E+02 1.3900000000E+02
angle_coeff 130  6.669181160396708208E+01 1.6100000000E+02
angle_coeff 131  7.453790708678672772E+00 4.4900000000E+01
angle_coeff 132  2.510750554502289944E+01 8.4800000000E+01
angle_coeff 133  1.922293393290815686E+02 1.6100000000E+02
angle_coeff 134  3.334590580198353678E+02 7.0400000000E+01
angle_coeff 135  6.276876386255725038E+02 1.7300000000E+02
angle_coeff 136  1.922293393290815500E+00 5.1600000000E+01
angle_coeff 137  2.157676257775405304E+01 7.3300000000E+01
angle_coeff 138  7.453790708678672772E+00 1.7400000000E+02
angle_coeff 139  4.707657289691792926E+02 1.3200000000E+02
angle_coeff 140  1.451527664321636166E+02 6.9900000000E+01
angle_coeff 141  1.569219096563931082E+01 1.4400000000E+02
angle_coeff 142  1.922293393290815629E+03 9.7900000000E+01
angle_coeff 143  3.923047741409827722E+02 1.5500000000E+02
angle_coeff 144  5.884571612114741583E+02 1.0400000000E+02
angle_coeff 145  1.176914322422948231E+02 1.4900000000E+02
angle_coeff 146  5.099962063832776380E+02 1.5700000000E+02
angle_coeff 147  2.863824851229174442E+02 1.6600000000E+02
angle_coeff 148  3.334590580198353678E+02 8.9800000000E+01
angle_coeff 149  3.923047741409827722E+02 7.9100000000E+01
angle_coeff 150  6.669181160396707128E+03 4.5200000000E+01
angle_coeff 151  4.707657289691792926E+02 1.0100000000E+02
angle_coeff 152  7.453790708678671990E+02 1.2500000000E+02
angle_coeff 153  1.686910528806225784E+02 4.9600000000E+01
angle_coeff 154  5.099962063832776380E+02 1.1200000000E+02
angle_coeff 155  4.707657289691792926E+02 1.0700000000E+02
angle_coeff 156  2.981516283471469251E+02 5.9600000000E+01
angle_coeff 157  2.393059122259994922E+02 7.0200000000E+01
angle_coeff 158  3.923047741409827722E+03 1.0000000000E+02
angle_coeff 159  3.923047741409827722E+03 1.0000000000E+02
angle_coeff 160  1.059222890180653621E+03 4.6300000000E+01
angle_coeff 161  1.176914322422948317E+03 4.6300000000E+01
angle_coeff 162  4.315352515550810608E+02 9.4100000000E+01
angle_coeff 163  5.099962063832776380E+02 6.9600000000E+01
angle_coeff 164  4.707657289691792926E+02 1.3900000000E+02
angle_coeff 165  6.669181160396707355E+02 1.3200000000E+02

#               dihedral_id     k                         n phi0
dihedral_coeff 1    6.381453154875716960E-01 -1  1
dihedral_coeff 2    8.150095602294454844E-01 -1  1
dihedral_coeff 3    1.187858508604206387E+00 -1  1
dihedral_coeff 4    1.400573613766730396E+00 -1  1
dihedral_coeff 5    2.234703632887188984E+00 -1  1
dihedral_coeff 6    2.258604206500955947E+00 -1  1
dihedral_coeff 7    6.668260038240917398E-01  1  1
dihedral_coeff 8    1.278680688336519822E+00  1  1
dihedral_coeff 9    3.656787762906309469E-01 -1  2
dihedral_coeff 10   1.400573613766730396E+00 -1  2
dihedral_coeff 11   1.699330783938814537E+00 -1  2
dihedral_coeff 12   3.991395793499043609E+00 -1  2
dihedral_coeff 13   5.736137667304014975E+00 -1  2
dihedral_coeff 14   8.006692160611853737E+00 -1  2
dihedral_coeff 15   9.990439770554491616E+00 -1  2
dihedral_coeff 16   0.000000000000000000E+00  1  2
dihedral_coeff 17   9.990439770554492005E-02  1  2
dihedral_coeff 18   4.995219885277246141E-01  1  2
dihedral_coeff 19   7.504780114722753304E-01  1  2
dihedral_coeff 20   1.216539196940726431E+00  1  2
dihedral_coeff 21   3.991395793499043609E+00  1  2
dihedral_coeff 22   2.509560229445506607E-01  1  3
dihedral_coeff 23   3.011472275334607929E-01  1  3
dihedral_coeff 24   3.107074569789675111E-01  1  3
dihedral_coeff 25   6.046845124282982376E-01  1  3
dihedral_coeff 26   7.002868068833651982E-01  1  3
dihedral_coeff 27   7.624282982791585894E-01  1  3
dihedral_coeff 28   8.723709369024855720E-01  1  3
dihedral_coeff 29   9.010516252390057268E-01  1  3
dihedral_coeff 30   9.321223709369024224E-01  1  3
dihedral_coeff 31   9.990439770554492283E-01  1  3
dihedral_coeff 32   1.120936902485659692E+00  1  3
dihedral_coeff 33   1.300191204588910132E+00  1  3
dihedral_coeff 34   1.414913957934990307E+00  1  3
dihedral_coeff 35   1.837954110898661453E+00  1  3
dihedral_coeff 36   2.060229445506692070E+00  1  3
dihedral_coeff 37   2.270554493307839206E+00  1  3
dihedral_coeff 38   0.000000000000000000E+00  1  4
dihedral_coeff 39   2.390057361376672906E-01 -1  6
dihedral_coeff 40   2.390057361376672906E-01  1  6
dihedral_coeff 41   9.010516252390057268E-01  1  6
dihedral_coeff 42   8.365200764818354617E-01 -1  2
dihedral_coeff 43   6.692160611854683916E-01  1  3
dihedral_coeff 44   1.673040152963670979E-01 -1  6
dihedral_coeff 45   9.560229445506691903E-02  1  6
dihedral_coeff 46   2.390057361376672906E-01 -1  3

# Dummy dihedral for 1-4 interactions
dihedral_coeff 47 0.0 1 1

#               improper_id     k                        xi0
improper_coeff 1    2.000754348119011894E+01 0.0000000000E+00
improper_coeff 2    4.001508696238023788E+01 3.5264390000E+01
improper_coeff 3    8.003017392476047576E+01 0.0000000000E+00
improper_coeff 4    2.000754348119011894E+01 1.8000000000E+02
improper_coeff 5    4.001508696238023788E+01 -3.5264390000E+01

# ------------------------------- Run Section -------------------------------

# Give each atom a random initial velocity consistent with a system at 300.0K.

variable mytemp equal temp
velocity all create 300.0 532
# define cation and anion groups

# We define groups for each molecule (1000)
group cation molecule <> 1 500
9500 atoms in group cation
group anion molecule <> 501 1000
2500 atoms in group anion

compute cat_rdf cation rdf 250
compute an_rdf anion rdf 250


timestep        0.5
fix             fxnvt all nvt temp 300.0 300.0 500.0
fix myat1 all ave/time 10 10 1000 v_mytemp file temperature_modvolume_nvt.dat
fix myat3 all ave/time 10 10 1000 c_thermo_press file pressure_modvolume_nvt.dat
fix myat4 all ave/time 1 1 1000 c_cat_rdf[1] c_cat_rdf[2]  file rdf_cation_modvolume_nvt.dat mode vector
fix myat5 all ave/time 1 1 1000 c_an_rdf[1] c_an_rdf[2]  file rdf_anion_modvolume_nvt.dat mode vector
thermo_style    custom step temp pe etotal epair ebond eangle edihed
thermo          1000
thermo_modify   norm yes

run		1000000 # .5 ns to equilibrate to higher volume (3%higher)
PPPM initialization ...
  using 12-bit tables for long-range coulomb (src/kspace.cpp:342)
  G vector (1/distance) = 0.19260754
  grid = 15 15 15
  stencil order = 5
  estimated absolute RMS force accuracy = 0.028834096
  estimated relative force accuracy = 8.6833025e-05
  using double precision FFTW3
  3d grid and FFT values/proc = 2197 512
Generated 0 of 2346 mixed pair_coeff terms from geometric mixing rule
Neighbor list info ...
  update: every = 1 steps, delay = 0 steps, check = yes
  max neighbors/atom: 2000, page size: 100000
  master list distance cutoff = 14
  ghost atom cutoff = 14
  binsize = 7, bins = 8 8 8
  3 neighbor lists, perpetual/occasional/extra = 1 2 0
  (1) pair lj/cut/coul/long, perpetual
      attributes: half, newton on
      pair build: half/bin/newton
      stencil: half/bin/3d
      bin: standard
  (2) compute rdf, occasional, copy from (1)
      attributes: half, newton on
      pair build: copy
      stencil: none
      bin: none
  (3) compute rdf, occasional, copy from (1)
      attributes: half, newton on
      pair build: copy
      stencil: none
      bin: none
Per MPI rank memory allocation (min/avg/max) = 24.01 | 24.02 | 24.03 Mbytes
   Step          Temp          PotEng         TotEng         E_pair         E_bond        E_angle        E_dihed    
         0   300           -1.1368742     -0.24270566    -4.4299951      2.4569342      0.68691637     0.07668494   
      1000   648.16047     -2.6715629     -0.73968062    -4.3940889      0.72539124     0.77966322     0.10986823   
      2000   537.95984     -2.8726092     -1.2691867     -4.3784145      0.59330309     0.71708348     0.094868331  
      3000   472.7872      -3.1215197     -1.7123483     -4.3945855      0.48765581     0.59913792     0.093011573  
      4000   415.9208      -3.3050269     -2.0653494     -4.4065208      0.4179637      0.5271395      0.077250088  
      5000   365.18465     -3.4266602     -2.3382048     -4.4165924      0.36817245     0.4753268      0.069987574  
      6000   334.49045     -3.5417034     -2.544734      -4.4320642      0.33247413     0.41630134     0.068770365  
      7000   309.91838     -3.6172978     -2.6935669     -4.4366032      0.30172624     0.38970094     0.061828006  
      8000   293.26966     -3.6617252     -2.7876169     -4.440688       0.29076808     0.36756532     0.05923479   
      9000   284.28233     -3.669576      -2.822255      -4.444922       0.28297525     0.37203441     0.060652814  
     10000   293.27431     -3.6652416     -2.7911195     -4.4507286      0.28980673     0.36979619     0.063319229  
     11000   302.68167     -3.633325      -2.7311636     -4.4352059      0.28939199     0.37935108     0.066100125  
     12000   310.59884     -3.6204427     -2.6946837     -4.4354302      0.300208       0.3799801      0.066185776  
     13000   305.57515     -3.6226264     -2.7118409     -4.4359293      0.29504502     0.38842261     0.067777329  
     14000   296.74576     -3.6438397     -2.7593707     -4.4389788      0.29033762     0.37224457     0.065792003  
     15000   290.7148      -3.657035      -2.7905416     -4.4377889      0.28210301     0.36448514     0.067154137  
     16000   295.37808     -3.6621659     -2.7817733     -4.4370727      0.28259398     0.35906795     0.064550534  
     17000   297.62928     -3.6315824     -2.7444799     -4.4301487      0.28893935     0.3737577      0.068170748  
     18000   308.83786     -3.6341013     -2.713591      -4.4384906      0.29514197     0.37303096     0.070261797  
     19000   303.64377     -3.6227544     -2.7177254     -4.4294327      0.29134177     0.37748502     0.068533322  
     20000   299.75798     -3.6439172     -2.75047       -4.4324822      0.2862925      0.36926707     0.065485617  
     21000   293.71828     -3.6546439     -2.7791984     -4.4379756      0.28372922     0.36827567     0.066478761  
     22000   294.4557      -3.6585356     -2.7808923     -4.4343313      0.2789307      0.35959648     0.066423101  
     23000   299.82745     -3.6495371     -2.7558829     -4.4373042      0.28569212     0.36756676     0.068195554  
     24000   306.59953     -3.6419026     -2.7280638     -4.4275459      0.2870011      0.36746263     0.064724389  
     25000   307.77962     -3.6376499     -2.7202938     -4.4382031      0.29541626     0.3742151      0.067566961  
     26000   297.67846     -3.6291265     -2.7418775     -4.4331635      0.29544813     0.37486548     0.065720437  
     27000   298.12846     -3.6585902     -2.7699999     -4.4332179      0.27561334     0.36447496     0.066618423  
     28000   294.52391     -3.6573251     -2.7794784     -4.4325515      0.28136038     0.36305134     0.06553169   
     29000   300.59369     -3.6565856     -2.7606476     -4.4356988      0.27737263     0.36696567     0.066988665  
     30000   304.28273     -3.6413472     -2.7344138     -4.4351606      0.2821239      0.37416336     0.067041057  
     31000   304.48991     -3.6313239     -2.723773      -4.4315975      0.28905813     0.37525384     0.066155692  
     32000   302.74858     -3.6402299     -2.7378691     -4.4356437      0.28695018     0.37302768     0.067027444  
     33000   295.33491     -3.6443099     -2.764046      -4.4356432      0.29116199     0.36859556     0.064920665  
     34000   295.98189     -3.6631195     -2.7809272     -4.4401832      0.28107273     0.36525653     0.065980817  
     35000   294.74993     -3.6533651     -2.7748448     -4.4371608      0.27831358     0.37077218     0.067261522  
     36000   302.56284     -3.65084       -2.7490328     -4.440925       0.28271792     0.37340572     0.067046113  
     37000   301.89445     -3.6282482     -2.7284332     -4.4348591      0.28913799     0.38119988     0.066802309  
     38000   303.10548     -3.6347169     -2.7312923     -4.4370799      0.29036341     0.3803071      0.063029491  
     39000   298.53259     -3.6440945     -2.7542998     -4.4336634      0.28460021     0.37245476     0.065448999  
     40000   294.98284     -3.6540948     -2.7748802     -4.4393393      0.28281468     0.36979995     0.065293962  
     41000   295.26622     -3.6512595     -2.7712004     -4.4351369      0.28532984     0.36878043     0.064629981  
     42000   301.19988     -3.6467961     -2.7490513     -4.4361783      0.28541936     0.37049597     0.064673924  
     43000   305.65275     -3.6386278     -2.7276109     -4.4393519      0.29152107     0.37287909     0.068406202  
     44000   301.52184     -3.6280546     -2.7293502     -4.434968       0.2924674      0.37820919     0.068776038  
     45000   299.98788     -3.6473709     -2.7532385     -4.437302       0.28930415     0.37291843     0.060876814  
     46000   294.85895     -3.6541087     -2.7752634     -4.4398597      0.28393815     0.36742274     0.067762703  
     47000   297.51029     -3.663216      -2.7764682     -4.4447421      0.2868564      0.36412638     0.065512572  
     48000   299.56503     -3.6466597     -2.7537876     -4.4410878      0.28904946     0.37439801     0.063824738  
     49000   302.83013     -3.6334097     -2.7308058     -4.4361235      0.29044743     0.3788313      0.066244691  
     50000   305.89432     -3.6378641     -2.7261272     -4.4392096      0.29601103     0.37182879     0.065343758  
     51000   302.6621      -3.6481413     -2.7460383     -4.4358016      0.28837975     0.36832189     0.065427779  
     52000   295.24736     -3.6502438     -2.7702408     -4.4405395      0.28782757     0.36728652     0.066402512  
     53000   294.17446     -3.6524235     -2.7756184     -4.441293       0.29398883     0.3617819      0.067714642  
     54000   301.67558     -3.6582252     -2.7590626     -4.4446598      0.28701143     0.36690232     0.066429049  
     55000   304.69438     -3.6457645     -2.7376041     -4.4418326      0.28509976     0.37682481     0.066603861  
     56000   303.53013     -3.6369811     -2.7322908     -4.441484       0.29118704     0.37861084     0.067129138  
     57000   303.17129     -3.6498205     -2.7461998     -4.4416981      0.28811652     0.37181513     0.06691855   
     58000   297.62596     -3.6527982     -2.7657057     -4.4419162      0.29091946     0.36586618     0.064954635  
     59000   295.50762     -3.6560969     -2.7753183     -4.4458517      0.29095508     0.36897982     0.064246036  
     60000   296.17142     -3.650345      -2.7675878     -4.4405268      0.28773064     0.37392927     0.065182007  
     61000   298.20563     -3.636458      -2.7476377     -4.4373406      0.28722253     0.38181303     0.066816943  
     62000   304.41949     -3.6399907     -2.7326496     -4.4390179      0.2798726      0.3834927      0.069413362  
     63000   303.50235     -3.6398491     -2.7352416     -4.4418095      0.29101142     0.38091828     0.065004258  
     64000   302.8768      -3.655009      -2.752266      -4.441067       0.2873572      0.36919643     0.065148657  
     65000   298.90417     -3.6600531     -2.7691508     -4.4446257      0.28174551     0.37555633     0.062455923  
     66000   294.5533      -3.6504759     -2.7725416     -4.4439522      0.29468989     0.36575737     0.066656199  
     67000   298.14131     -3.648576      -2.7599475     -4.4444877      0.28987438     0.3706755      0.066940194  
     68000   304.1954      -3.6478881     -2.7412149     -4.4417004      0.28460673     0.37932252     0.065705707  
     69000   302.1507      -3.6355173     -2.7349386     -4.4412487      0.29123765     0.38036784     0.066951377  
     70000   304.25132     -3.6542496     -2.7474098     -4.4420981      0.28218637     0.37318064     0.067055415  
     71000   299.45256     -3.6586656     -2.7661288     -4.4453301      0.28599534     0.36764231     0.066677651  
     72000   295.76218     -3.6547287     -2.7731913     -4.4416726      0.28430458     0.37148553     0.064907925  
     73000   298.2703      -3.6512609     -2.7622479     -4.4413674      0.28541191     0.37516776     0.064547536  
     74000   303.81491     -3.650527      -2.744988      -4.4401836      0.282402       0.37437556     0.064460858  
     75000   301.60081     -3.6358694     -2.7369296     -4.4396835      0.29164694     0.38170519     0.064108992  
     76000   302.84183     -3.6481303     -2.7454916     -4.4435054      0.28813193     0.37497001     0.066527967  
     77000   298.32445     -3.649907      -2.7607326     -4.4449181      0.28877546     0.37136465     0.066362898  
     78000   295.85088     -3.6484562     -2.7666544     -4.4429911      0.29281732     0.36729558     0.067493007  
     79000   298.84543     -3.6517291     -2.7610019     -4.4427606      0.28528394     0.37710973     0.062668053  
     80000   300.76073     -3.6460174     -2.7495815     -4.4424618      0.29839198     0.36182608     0.066467396  
     81000   302.29794     -3.6462572     -2.7452395     -4.4448791      0.28850906     0.37485805     0.067605669  
     82000   301.04776     -3.6460007     -2.7487093     -4.4421091      0.2901311      0.37427232     0.064153079  
     83000   299.48502     -3.6496171     -2.7569836     -4.440486       0.28156737     0.37864291     0.063388966  
     84000   299.26278     -3.6529314     -2.7609602     -4.4368746      0.28563735     0.36934576     0.061607232  
     85000   299.99225     -3.6519883     -2.7578429     -4.442919       0.28785598     0.37144988     0.066539354  
     86000   299.60539     -3.6436295     -2.7506371     -4.4441077      0.29459564     0.37566024     0.064506001  
     87000   301.36904     -3.6446093     -2.7463603     -4.4415247      0.29132626     0.37180054     0.066228897  
     88000   299.64129     -3.6422067     -2.7491074     -4.4400906      0.28906966     0.37562429     0.066892852  
     89000   298.84983     -3.6465521     -2.7558118     -4.4372743      0.27681244     0.38340468     0.066688862  
     90000   296.4422      -3.6418543     -2.75829       -4.4382673      0.28953326     0.37678747     0.063378842  
     91000   299.51462     -3.648194      -2.7554722     -4.4406272      0.28774127     0.37144741     0.066032204  
     92000   298.183       -3.6396945     -2.7509417     -4.4401713      0.29251334     0.37599786     0.067391274  
     93000   299.05253     -3.6401046     -2.7487601     -4.4367297      0.28881118     0.3738691      0.067558079  
     94000   302.20106     -3.6508781     -2.7501492     -4.4353275      0.28551613     0.3672168      0.065625331  
     95000   298.97504     -3.6444791     -2.7533655     -4.4365895      0.29018211     0.37063419     0.066825556  
     96000   301.67435     -3.6547598     -2.7556008     -4.4373046      0.28921502     0.36276177     0.067335916  
     97000   298.17813     -3.641675      -2.7529367     -4.4350704      0.28667516     0.37560224     0.065824085  
     98000   300.59116     -3.6439343     -2.7480038     -4.4414371      0.28662906     0.37668015     0.064019744  
     99000   298.44306     -3.6373669     -2.747839      -4.4381877      0.28950282     0.37909674     0.064860924  
    100000   300.77909     -3.6491548     -2.7526642     -4.4377585      0.2791854      0.37895936     0.065010467  
    101000   298.01263     -3.6449558     -2.7567108     -4.4379719      0.28379803     0.37476527     0.069571264  
    102000   298.87354     -3.6492043     -2.7583933     -4.437742       0.28696251     0.37128168     0.063209467  
    103000   297.9452      -3.6425876     -2.7545435     -4.4411749      0.29202996     0.37297427     0.067894057  
    104000   297.75517     -3.6366989     -2.7492213     -4.4388893      0.29210715     0.37749373     0.066834474  
    105000   304.14658     -3.6527008     -2.7461732     -4.4437677      0.28551326     0.373531       0.065222184  
    106000   300.76498     -3.6450425     -2.7485939     -4.443788       0.28747388     0.37701659     0.067772278  
    107000   298.86464     -3.647567      -2.7567825     -4.4430537      0.29448465     0.37163405     0.063511876  
    108000   295.7267      -3.6448407     -2.7634091     -4.4422708      0.29413827     0.36999372     0.0659767    
    109000   298.44706     -3.6509588     -2.7614189     -4.4476381      0.29477018     0.37163851     0.063147362  
    110000   299.97906     -3.6485824     -2.7544763     -4.4456917      0.28709835     0.37484447     0.067258734  
    111000   299.68967     -3.6406424     -2.7473989     -4.4437659      0.29045268     0.38058924     0.066733421  
    112000   302.07199     -3.6476948     -2.7473506     -4.4393007      0.28086476     0.37758213     0.065175622  
    113000   300.43093     -3.6501733     -2.7547204     -4.4424107      0.28509144     0.37446811     0.063024322  
    114000   297.08627     -3.6483872     -2.7629033     -4.4427881      0.2918343      0.37174347     0.065903545  
    115000   300.00707     -3.658415      -2.7642254     -4.4399773      0.28379019     0.36977371     0.063082632  
    116000   301.40499     -3.6567788     -2.7584227     -4.4436956      0.28140932     0.37459295     0.066523454  
    117000   303.51832     -3.6536462     -2.7489912     -4.4465154      0.28625267     0.37575024     0.065060182  
    118000   300.44098     -3.6404592     -2.7449763     -4.4401043      0.2882803      0.3768773      0.066060748  
    119000   299.25142     -3.6427359     -2.7507986     -4.4388319      0.2914167      0.37050801     0.067429057  
    120000   298.09925     -3.6484786     -2.7599754     -4.4333105      0.2853751      0.36773413     0.064638887  
    121000   300.50344     -3.6580618     -2.7623928     -4.4429733      0.27923075     0.370917       0.06680092   
    122000   299.29727     -3.6493112     -2.7572372     -4.4417938      0.29115087     0.373905       0.064501897  
    123000   299.64291     -3.6436523     -2.7505482     -4.4416016      0.29447545     0.36743293     0.067728336  
    124000   298.84598     -3.6375543     -2.7468255     -4.4396421      0.29045907     0.37566109     0.067423606  
    125000   297.7203      -3.6374106     -2.7500369     -4.4391374      0.28721836     0.37716151     0.069687814  
    126000   301.07097     -3.6548548     -2.7574942     -4.4435452      0.28211377     0.3743573      0.066145572  
    127000   298.37996     -3.650721      -2.7613811     -4.4393729      0.28587548     0.37068097     0.066534018  
    128000   299.2842      -3.6484328     -2.7563978     -4.4404755      0.28750283     0.37166604     0.06508829   
    129000   299.94163     -3.643896      -2.7499015     -4.4361053      0.29007836     0.374476       0.063457415  
    130000   302.29426     -3.6476924     -2.7466857     -4.4396037      0.28869138     0.37420003     0.064450036  
    131000   300.13012     -3.6452841     -2.7507278     -4.4384422      0.29125952     0.37234047     0.063813787  
    132000   299.88685     -3.6503888     -2.7565576     -4.4414045      0.29487806     0.36496313     0.064625824  
    133000   298.68047     -3.6498611     -2.7596255     -4.4379694      0.28085841     0.37577869     0.067224323  
    134000   296.89348     -3.6414196     -2.7565103     -4.4427374      0.29089078     0.37520699     0.06688351   
    135000   300.8606      -3.648515      -2.7517814     -4.4400183      0.28383324     0.37410903     0.066273272  
    136000   304.33417     -3.6573506     -2.7502639     -4.4473571      0.28699127     0.36976597     0.065697692  
    137000   299.98587     -3.646554      -2.7524276     -4.436968       0.28267636     0.37428736     0.066328642  
    138000   300.47701     -3.6522403     -2.75665       -4.4364077      0.28688065     0.36912944     0.061661969  
    139000   296.94653     -3.6428971     -2.7578297     -4.4444284      0.28609295     0.38283806     0.065458781  
    140000   298.90436     -3.6470891     -2.7561862     -4.4386666      0.28642621     0.37665427     0.063560725  
    141000   300.95352     -3.6480868     -2.7510763     -4.4440454      0.28992876     0.3748628      0.06471421   
    142000   299.48481     -3.6428564     -2.7502235     -4.441134       0.28783357     0.37986826     0.066575375  
    143000   297.86675     -3.6418271     -2.7540169     -4.4409182      0.28808644     0.37639458     0.067623453  
    144000   298.27002     -3.6468625     -2.7578503     -4.4443475      0.28898492     0.37717946     0.065808353  
    145000   300.46237     -3.655449      -2.7599024     -4.4432602      0.28512171     0.36926579     0.065788328  
    146000   302.41235     -3.6589429     -2.7575843     -4.4459254      0.28616892     0.37051153     0.064063353  
    147000   299.86864     -3.6462478     -2.7524709     -4.4402292      0.28513281     0.37571919     0.066352942  
    148000   299.38176     -3.642209      -2.7498832     -4.4391042      0.28922379     0.3742887      0.066589591  
    149000   300.02573     -3.6450414     -2.7507962     -4.4370731      0.28326575     0.37691836     0.065924397  
    150000   301.68272     -3.6538665     -2.7546826     -4.4473761      0.28469435     0.3728454      0.069437141  
    151000   298.87264     -3.6506802     -2.7598719     -4.4414416      0.28626119     0.37027941     0.066819015  
    152000   301.19158     -3.6584143     -2.7606942     -4.4404337      0.27877282     0.37232204     0.065152885  
    153000   303.3827      -3.6588427     -2.7545919     -4.4381535      0.28263717     0.36505176     0.064242794  
    154000   300.63039     -3.6456857     -2.7496383     -4.4326559      0.28636205     0.36627933     0.069099109  
    155000   303.072       -3.6516541     -2.7483294     -4.4413756      0.29094724     0.37266092     0.064707441  
    156000   300.01518     -3.6475839     -2.7533702     -4.4387877      0.29330172     0.36911054     0.065702016  
    157000   297.81567     -3.6483821     -2.7607241     -4.4431432      0.28337892     0.38048571     0.067385052  
    158000   297.50072     -3.6479627     -2.7612434     -4.4404061      0.28270126     0.37608449     0.065618407  
    159000   299.22458     -3.6469339     -2.7550766     -4.4432874      0.28337461     0.37710947     0.068217071  
    160000   302.07036     -3.6488338     -2.7484945     -4.4404067      0.28557251     0.37274394     0.067278113  
    161000   297.09362     -3.6340154     -2.7485095     -4.4404291      0.29250085     0.38291743     0.064553146  
    162000   300.07914     -3.6482739     -2.7538695     -4.4428711      0.29197739     0.3666296      0.068633647  
    163000   298.65102     -3.6497695     -2.7596217     -4.4415028      0.2850211      0.37730332     0.063654121  
    164000   297.59147     -3.648559      -2.7615693     -4.4378388      0.28222211     0.37404729     0.065460396  
    165000   296.37445     -3.6400179     -2.7566556     -4.4419357      0.288966       0.37847858     0.068206821  
    166000   300.13526     -3.6447181     -2.7501464     -4.4378298      0.2877924      0.37208871     0.068253924  
    167000   305.24454     -3.6550639     -2.7452637     -4.4448989      0.29154611     0.36815206     0.064406651  
    168000   300.71328     -3.6454138     -2.7491194     -4.439672       0.28405507     0.37358209     0.066950407  
    169000   297.24082     -3.6434782     -2.7575336     -4.4431547      0.28825096     0.37874294     0.065425041  
    170000   300.2799      -3.6579227     -2.76292       -4.4388671      0.27839154     0.37082485     0.066100965  
    171000   300.70389     -3.6583584     -2.7620919     -4.4409223      0.27836578     0.3672486      0.0711441    
    172000   300.31116     -3.6498531     -2.7547572     -4.4425489      0.28573013     0.37384149     0.06586255   
    173000   300.5742      -3.643816      -2.7479361     -4.4384739      0.28331581     0.37491068     0.068296083  
    174000   302.18372     -3.6481344     -2.7474571     -4.4368826      0.28700826     0.36988512     0.066841691  
    175000   298.1678      -3.6441863     -2.7554788     -4.4366843      0.28767569     0.37079351     0.066177447  
    176000   297.2847      -3.6496614     -2.7635861     -4.4381919      0.28071803     0.3775607      0.067212541  
    177000   299.18058     -3.6559392     -2.764213      -4.4482555      0.28689884     0.37386784     0.066260275  
    178000   303.50918     -3.6624315     -2.7578036     -4.4429116      0.28382002     0.36413818     0.065872675  
    179000   299.68532     -3.6419113     -2.7486807     -4.4376057      0.28615078     0.37236505     0.068104563  
    180000   303.31464     -3.646732      -2.7426841     -4.4390769      0.28111837     0.37573221     0.067044932  
    181000   303.04379     -3.6497759     -2.7465352     -4.4444551      0.28847559     0.3737332      0.06743802   
    182000   299.48392     -3.6510653     -2.758435      -4.4424231      0.28611103     0.37424389     0.067584944  
    183000   297.86152     -3.6529776     -2.765183      -4.4447799      0.28252111     0.37698709     0.067075747  
    184000   300.15508     -3.6567245     -2.7620938     -4.4416003      0.28583421     0.36743469     0.064725662  
    185000   297.17169     -3.6371656     -2.7514271     -4.4379853      0.29044714     0.37520945     0.067904736  
    186000   300.95519     -3.6423804     -2.745365      -4.4392927      0.28649521     0.37964327     0.066525561  
    187000   304.14042     -3.6554118     -2.7489025     -4.4440054      0.28244148     0.376034       0.064835367  
    188000   302.06293     -3.660429      -2.7601118     -4.4480756      0.28380187     0.37073118     0.068593369  
    189000   296.95631     -3.6519745     -2.7668779     -4.4362042      0.28357419     0.36955104     0.064984766  
    190000   299.08062     -3.6509016     -2.7594733     -4.4410661      0.28252139     0.37346689     0.065173752  
    191000   300.79455     -3.6446479     -2.7481112     -4.4402497      0.29233486     0.37188185     0.066825275  
    192000   302.41862     -3.6422273     -2.7408499     -4.4391393      0.28990338     0.37052466     0.068887669  
    193000   299.98341     -3.6393607     -2.7452417     -4.4409682      0.28564923     0.37881487     0.069279631  
    194000   296.85511     -3.6426084     -2.7578135     -4.4414677      0.28894823     0.37457819     0.068900726  
    195000   296.80249     -3.6491049     -2.7644668     -4.4408724      0.28503046     0.37110289     0.067018769  
    196000   301.77383     -3.6601267     -2.7606712     -4.4423621      0.28258984     0.36990748     0.064521121  
    197000   303.02718     -3.6480739     -2.7448828     -4.4396592      0.28937228     0.3722017      0.066222674  
    198000   302.31519     -3.6446663     -2.7435972     -4.4410156      0.28966857     0.37232164     0.067997726  
    199000   299.55378     -3.642002      -2.7491635     -4.4397002      0.28609747     0.37824208     0.067124118  
    200000   301.98515     -3.6539729     -2.7538876     -4.443949       0.28418422     0.37415876     0.067288295  
    201000   300.51619     -3.6526078     -2.7569008     -4.4438042      0.28616405     0.37428765     0.065527203  
    202000   296.21101     -3.6410379     -2.7581627     -4.4373127      0.28883371     0.37193836     0.067701171  
    203000   298.4557      -3.6449225     -2.7553569     -4.4397786      0.29530583     0.36797323     0.067587584  
    204000   300.2511      -3.6363881     -2.7414712     -4.4357265      0.28179121     0.38071484     0.069709283  
    205000   298.77652     -3.6229529     -2.7324311     -4.4393521      0.29796905     0.38299813     0.068430774  
    206000   301.74543     -3.6437419     -2.7443711     -4.4398334      0.28554226     0.37589342     0.069059889  
    207000   298.91173     -3.6471525     -2.7562276     -4.4345706      0.29255361     0.36690043     0.064035478  
    208000   297.77567     -3.6466761     -2.7591374     -4.436717       0.28841777     0.36897413     0.064277521  
    209000   297.93287     -3.6445479     -2.7565406     -4.4396285      0.29195712     0.37031296     0.067816478  
    210000   299.20429     -3.637121      -2.7453241     -4.4349892      0.29157077     0.37439517     0.065456722  
    211000   301.79132     -3.6340698     -2.7345622     -4.4406823      0.2957568      0.37815137     0.065320616  
    212000   299.05536     -3.6359786     -2.7446256     -4.437501       0.29608764     0.37379451     0.065656115  
    213000   298.19133     -3.6470691     -2.7582914     -4.4394476      0.28976377     0.36936375     0.068133153  
    214000   298.13039     -3.6457081     -2.7571121     -4.438355       0.29063029     0.37065963     0.06584671   
    215000   299.93244     -3.6467831     -2.752816      -4.4430124      0.29352177     0.36990439     0.067721444  
    216000   303.97598     -3.6514589     -2.7454397     -4.4456513      0.28520113     0.37734062     0.065712054  
    217000   304.01233     -3.6424411     -2.7363136     -4.4394904      0.29315443     0.36997247     0.067748705  
    218000   302.09691     -3.6393544     -2.738936      -4.4435059      0.29613193     0.37831157     0.063471144  
    219000   298.14929     -3.6463659     -2.7577136     -4.4423309      0.29246326     0.3732113      0.064563379  
    220000   299.99784     -3.6559429     -2.7617808     -4.4452154      0.28731859     0.36891183     0.065974767  
    221000   299.03886     -3.6476146     -2.7563109     -4.4442824      0.29628642     0.36541171     0.068663214  
    222000   301.30618     -3.642306      -2.7442443     -4.4363536      0.28743163     0.37474618     0.066154111  
    223000   301.41929     -3.6363079     -2.7379091     -4.4350815      0.2887863      0.37810322     0.067639207  
    224000   297.52775     -3.6373511     -2.7505513     -4.4401573      0.29132152     0.37485309     0.068373176  
    225000   296.25969     -3.6477409     -2.7647207     -4.4433358      0.28413955     0.37582261     0.066150102  
    226000   297.72594     -3.6455298     -2.7581392     -4.4375504      0.29042334     0.37147815     0.063617482  
    227000   299.08728     -3.6386204     -2.7471723     -4.443759       0.29338195     0.3773452      0.067850425  
    228000   301.75748     -3.6420245     -2.7426177     -4.4362328      0.28677368     0.37584656     0.064198014  
    229000   303.34479     -3.6557626     -2.7516247     -4.4408105      0.28444619     0.36902929     0.064867948  
    230000   297.21549     -3.6544502     -2.7685811     -4.443802       0.28323436     0.37100609     0.066936811  
    231000   299.42957     -3.6596736     -2.7672053     -4.4408666      0.28271267     0.36866219     0.065635143  
    232000   301.82086     -3.6563939     -2.7567982     -4.4396404      0.28009701     0.37173266     0.065566609  
    233000   301.77814     -3.6488575     -2.7493891     -4.4422472      0.28752156     0.37470166     0.065384566  
    234000   302.36382     -3.6539603     -2.7527463     -4.4407861      0.28629331     0.36911385     0.066385749  
    235000   297.16915     -3.6545955     -2.7688645     -4.4414172      0.28803175     0.36939386     0.064025355  
    236000   297.72625     -3.6663454     -2.7789539     -4.4460831      0.27853937     0.37029337     0.064974696  
    237000   297.27363     -3.6541086     -2.7680662     -4.4459175      0.28146617     0.37352934     0.069889909  
    238000   297.43236     -3.6433102     -2.7567947     -4.438611       0.28518865     0.37605046     0.067815483  
    239000   299.02561     -3.6414721     -2.7502078     -4.4408967      0.29567283     0.37165797     0.065076898  
    240000   303.61493     -3.6527785     -2.7478354     -4.4428781      0.28705873     0.3714536      0.064954661  
    241000   300.15502     -3.6492257     -2.7545951     -4.4446955      0.29202518     0.37426428     0.06455213   
    242000   297.2992      -3.6566743     -2.7705557     -4.4462557      0.29131597     0.37245662     0.061777449  
    243000   296.58838     -3.653543      -2.769543      -4.4477182      0.29066359     0.36980059     0.067256278  
    244000   299.06757     -3.6488525     -2.7574631     -4.439086       0.28633069     0.37109354     0.067188979  
    245000   300.86713     -3.6482802     -2.7515272     -4.4407418      0.28504032     0.37189948     0.067692896  
    246000   300.4268      -3.6469269     -2.7514863     -4.4440727      0.29364239     0.37151522     0.065813217  
    247000   297.61544     -3.642757      -2.7556959     -4.4410377      0.2920476      0.37384009     0.066831791  
    248000   297.04118     -3.6508868     -2.7655372     -4.443118       0.29412791     0.36737326     0.065694168  
    249000   297.14878     -3.6632584     -2.7775881     -4.4430903      0.28610683     0.36703241     0.062572097  
    250000   294.74909     -3.651647      -2.7731292     -4.4464763      0.2897776      0.37096844     0.065289982  
    251000   298.96384     -3.6455138     -2.7544337     -4.443924       0.29025812     0.37659067     0.06615228   
    252000   299.79168     -3.6435735     -2.7500259     -4.4421078      0.29227449     0.37199347     0.066743665  
    253000   300.63386     -3.6470055     -2.7509478     -4.4395924      0.28889759     0.36954585     0.066873665  
    254000   299.96922     -3.6534012     -2.7593245     -4.4415778      0.28759609     0.36796205     0.066404972  
    255000   296.18831     -3.6529778     -2.7701703     -4.444099       0.29054612     0.37244266     0.06403884   
    256000   296.61852     -3.6546534     -2.7705636     -4.4448495      0.28461152     0.37121229     0.068142812  
    257000   299.92714     -3.6439583     -2.750007      -4.4410991      0.29401159     0.37399107     0.064839646  
    258000   300.52673     -3.6410557     -2.7453173     -4.4390225      0.28866972     0.37682169     0.065982455  
    259000   298.56636     -3.6395029     -2.7496074     -4.4435616      0.2925375      0.37998962     0.066351757  
    260000   298.70881     -3.6514866     -2.7611665     -4.4414983      0.28217205     0.37521554     0.066144411  
    261000   299.07769     -3.6588735     -2.767454      -4.4431387      0.28722226     0.3693903      0.064145528  
    262000   299.15688     -3.6485049     -2.7568494     -4.4423331      0.2915837      0.36949515     0.06677111   
    263000   302.61172     -3.6420314     -2.7400785     -4.440531       0.29088574     0.37808591     0.064682072  
    264000   303.52286     -3.6490983     -2.7444297     -4.440597       0.28787173     0.36994309     0.066814253  
    265000   298.23743     -3.6452706     -2.7563556     -4.4440519      0.29396863     0.3733757      0.064684849  
    266000   299.37096     -3.6551789     -2.7628853     -4.4484768      0.28580839     0.37472374     0.064795303  
    267000   299.29135     -3.6556494     -2.7635931     -4.4439055      0.286052       0.37460965     0.063059086  
    268000   300.21884     -3.6529616     -2.7581408     -4.4472459      0.28730636     0.37465961     0.068675798  
    269000   300.61669     -3.6328048     -2.7367982     -4.4377181      0.28968541     0.38434385     0.065589822  
    270000   301.40265     -3.6371347     -2.7387855     -4.4445791      0.29191793     0.38021581     0.068576956  
    271000   304.34127     -3.6582917     -2.7511838     -4.4491351      0.29094769     0.3682038      0.065942795  
    272000   300.48933     -3.6552446     -2.7596176     -4.4425363      0.28571593     0.37167306     0.06466477   
    273000   299.29934     -3.6530275     -2.7609474     -4.4461803      0.29061848     0.3694909      0.066359418  
    274000   299.3485      -3.6522243     -2.7599976     -4.4418274      0.2863776      0.37665868     0.062822227  
    275000   300.35177     -3.6448305     -2.7496136     -4.4413881      0.28943975     0.37341077     0.067629408  
    276000   305.35858     -3.6519135     -2.7417734     -4.4450202      0.28416126     0.37663178     0.064893809  
    277000   301.57483     -3.6482383     -2.7493759     -4.4427723      0.283688       0.37829414     0.066972896  
    278000   301.00129     -3.660589      -2.7634361     -4.4445982      0.28159036     0.37160857     0.0663505    
    279000   296.44845     -3.6472659     -2.763683      -4.4423872      0.28872717     0.3703696      0.067608706  
    280000   298.08563     -3.6450707     -2.7566081     -4.4438286      0.29065465     0.378809       0.063058968  
    281000   302.5683      -3.6535487     -2.7517252     -4.4426456      0.28712272     0.37294785     0.064158014  
    282000   299.3709      -3.641015      -2.7487216     -4.4415509      0.29394248     0.37386674     0.065519417  
    283000   298.09531     -3.6364047     -2.7479133     -4.4423459      0.29342319     0.3796404      0.066331764  
    284000   300.40653     -3.6511092     -2.7557291     -4.4443117      0.28847919     0.37202406     0.065530532  
    285000   300.95221     -3.662721      -2.7657144     -4.4487165      0.28377294     0.37284923     0.064923581  
    286000   296.64693     -3.6510357     -2.7668613     -4.4444628      0.28475028     0.37635811     0.066716902  
    287000   302.04918     -3.6540037     -2.7537275     -4.4395748      0.28147475     0.37442134     0.06576905   
    288000   304.06554     -3.6514957     -2.7452096     -4.4382886      0.28479151     0.37195114     0.06496243   
    289000   303.23269     -3.6518437     -2.7480399     -4.4409597      0.28435044     0.37265017     0.063038574  
    290000   299.70336     -3.647479      -2.7541947     -4.4423886      0.28451352     0.37499969     0.065757606  
    291000   299.15292     -3.648414      -2.7567702     -4.4382445      0.28244278     0.37539947     0.065457551  
    292000   300.38497     -3.6519611     -2.7566451     -4.4407374      0.2842724      0.37227704     0.066756107  
    293000   300.67555     -3.6537836     -2.7576016     -4.4428068      0.28574878     0.37021132     0.067235614  
    294000   300.21763     -3.6526684     -2.7578513     -4.438256       0.28489658     0.37032807     0.065623018  
    295000   296.81145     -3.6410804     -2.7564155     -4.443679       0.28816012     0.3771634      0.069455542  
    296000   298.15843     -3.6436532     -2.7549736     -4.4377536      0.29164364     0.37210177     0.06324674   
    297000   301.42505     -3.6532244     -2.7548085     -4.4426503      0.2873178      0.37100854     0.067134622  
    298000   297.50937     -3.6470399     -2.7602949     -4.4372048      0.28989741     0.36578        0.065869771  
    299000   299.57098     -3.6612853     -2.7683956     -4.444131       0.28048165     0.36935332     0.068339654  
    300000   300.55209     -3.6599356     -2.7641216     -4.4408458      0.28526581     0.36707046     0.065385805  
    301000   302.33471     -3.6507612     -2.7496339     -4.4339593      0.28949844     0.36652183     0.063957888  
    302000   301.92025     -3.6456692     -2.7457773     -4.4372381      0.28968687     0.37077422     0.064826714  
    303000   302.2663      -3.6507581     -2.7498347     -4.4354745      0.28214719     0.37320448     0.067098986  
    304000   297.20708     -3.6483807     -2.7625367     -4.4421417      0.28184374     0.37920733     0.066607623  
    305000   295.25965     -3.6556401     -2.7756005     -4.4406658      0.28014008     0.37362536     0.064748334  
    306000   295.59263     -3.6502509     -2.7692188     -4.436441       0.28452994     0.37313615     0.064700492  
    307000   297.76408     -3.6459082     -2.758404      -4.4365224      0.28850098     0.37043883     0.064943382  
    308000   302.68126     -3.652805      -2.7506448     -4.4427965      0.28657093     0.36983272     0.066587474  
    309000   300.44732     -3.6445049     -2.7490032     -4.4417113      0.28900533     0.37479509     0.068100575  
    310000   301.01518     -3.6531025     -2.7559082     -4.4447458      0.28844701     0.37414749     0.063858367  
    311000   297.40186     -3.6582909     -2.7718663     -4.4348121      0.28487848     0.36696866     0.060691319  
    312000   296.49008     -3.6523735     -2.7686665     -4.4445853      0.28913919     0.37002439     0.064759342  
    313000   299.39358     -3.6493784     -2.7570174     -4.4443867      0.28690747     0.37397177     0.064484661  
    314000   301.50765     -3.6525304     -2.7538683     -4.4406944      0.28447564     0.37377336     0.063990893  
    315000   300.54096     -3.6501872     -2.7544063     -4.4428823      0.28544088     0.37354848     0.0679224    
    316000   298.25296     -3.6444595     -2.7554981     -4.4430279      0.29441283     0.37570141     0.063783966  
    317000   299.03915     -3.6530501     -2.7617454     -4.4437407      0.29116553     0.3668425      0.066469268  
    318000   298.18037     -3.6580022     -2.7692572     -4.4450661      0.27987088     0.36987476     0.067464415  
    319000   298.6224      -3.6569532     -2.7668907     -4.4465176      0.28586433     0.36703893     0.069705578  
    320000   300.97476     -3.6482064     -2.7511326     -4.4413574      0.28892751     0.36669415     0.068017392  
    321000   300.82929     -3.642035      -2.7453948     -4.4355692      0.29167702     0.36931722     0.06539814   
    322000   298.81873     -3.6391859     -2.7485382     -4.4407267      0.28732062     0.37760164     0.069496     
    323000   299.62489     -3.650223      -2.7571725     -4.4426555      0.28561002     0.3745004      0.064827214  
    324000   298.91451     -3.6649505     -2.7740173     -4.4416282      0.27994871     0.36648457     0.06350942   
    325000   298.53715     -3.6618521     -2.7720437     -4.4453686      0.28640926     0.36688033     0.063937004  
    326000   298.34344     -3.6516917     -2.7624607     -4.4390135      0.28115589     0.37405154     0.064116573  
    327000   299.06493     -3.6445988     -2.7532173     -4.4352061      0.28102887     0.37502411     0.068333107  
    328000   302.44304     -3.6505814     -2.7491313     -4.4392471      0.28679758     0.36968957     0.064276755  
    329000   300.66577     -3.6438398     -2.7476869     -4.4387222      0.29157446     0.37310549     0.065838131  
    330000   295.05462     -3.6316615     -2.752233      -4.4417759      0.29776356     0.37637771     0.067099638  
    331000   298.31138     -3.652213      -2.7630775     -4.4407868      0.28529003     0.36940147     0.06871355   
    332000   297.02393     -3.6516239     -2.7663258     -4.438834       0.28856908     0.36688676     0.066005051  
    333000   298.56957     -3.644187      -2.754282      -4.4430435      0.29294638     0.37193589     0.066202632  
    334000   303.47033     -3.6477811     -2.7432691     -4.4394596      0.28624584     0.37270953     0.065112056  
    335000   304.01189     -3.6517193     -2.7455931     -4.4430991      0.28894009     0.37444711     0.060767485  
    336000   298.36755     -3.6437122     -2.7544094     -4.4427855      0.28351181     0.38117138     0.066612776  
    337000   299.01824     -3.6520014     -2.7607591     -4.4432861      0.28772943     0.37346037     0.06420883   
    338000   296.19287     -3.6432753     -2.7604542     -4.4385759      0.29404754     0.37160432     0.06459533   
    339000   300.01434     -3.651907      -2.7576958     -4.4424314      0.28599998     0.3763447      0.061934807  
    340000   297.90048     -3.6438782     -2.7559675     -4.443044       0.29265452     0.37798238     0.065465421  
    341000   301.8515      -3.6531741     -2.7534871     -4.4415324      0.29037266     0.37061437     0.061414264  
    342000   304.57446     -3.6560756     -2.7482727     -4.4444098      0.28542955     0.37079504     0.066594271  
    343000   299.0988      -3.6311938     -2.7397114     -4.4389772      0.29501036     0.37790407     0.068086349  
    344000   301.49277     -3.6400156     -2.7413978     -4.4400696      0.29015666     0.37086094     0.069502534  
    345000   297.50584     -3.645047      -2.7583125     -4.4398955      0.28384184     0.38211982     0.063575495  
    346000   298.30499     -3.6521493     -2.7630329     -4.4421952      0.28489196     0.37689414     0.065348179  
    347000   298.1407      -3.6482966     -2.7596699     -4.4422032      0.28889596     0.37380335     0.063795859  
    348000   300.98743     -3.6447502     -2.7476386     -4.4424231      0.28976936     0.37745026     0.063748812  
    349000   304.15186     -3.6433522     -2.7368089     -4.4406934      0.29294238     0.37763623     0.063247074  
    350000   305.32442     -3.6549897     -2.7449514     -4.4436636      0.28446195     0.37235998     0.067259256  
    351000   299.63766     -3.658984      -2.7658955     -4.4410955      0.28212769     0.3685144      0.065666893  
    352000   297.19841     -3.6480381     -2.76222       -4.4429974      0.28825377     0.37802527     0.063154355  
    353000   297.70563     -3.6389622     -2.7516322     -4.4402809      0.29443582     0.37660088     0.065654101  
    354000   301.7543      -3.6440238     -2.7446265     -4.4400789      0.28716096     0.37827558     0.066092221  
    355000   298.78564     -3.6371745     -2.7466255     -4.4366233      0.29233305     0.37719001     0.065199543  
    356000   298.8365      -3.6531464     -2.7624458     -4.443382       0.28642037     0.3690962      0.067153755  
    357000   298.52856     -3.6584518     -2.768669      -4.4397756      0.28163942     0.36992606     0.064450581  
    358000   297.36939     -3.6483689     -2.7620411     -4.4396226      0.28806296     0.37311533     0.064215823  
    359000   299.24466     -3.6457824     -2.7538652     -4.446245       0.28862839     0.37101071     0.071964472  
    360000   298.45515     -3.6418082     -2.7522442     -4.4432166      0.29372327     0.37481512     0.065868078  
    361000   302.02835     -3.653541      -2.7533269     -4.4419008      0.28499852     0.37308489     0.064113821  
    362000   298.51303     -3.6442576     -2.7545211     -4.4438888      0.2961191      0.37232108     0.065414948  
    363000   302.36962     -3.6598723     -2.758641      -4.443238       0.28441318     0.36995586     0.063752396  
    364000   298.8658      -3.6536412     -2.7628532     -4.4435838      0.28591652     0.37116798     0.064352455  
    365000   300.60417     -3.65602       -2.7600507     -4.4477246      0.27962789     0.37885919     0.066051347  
    366000   302.03422     -3.649715      -2.7494834     -4.4427847      0.2906378      0.3687163      0.067235234  
    367000   299.31393     -3.6330414     -2.7409178     -4.4394096      0.28999116     0.38295569     0.068600523  
    368000   299.77259     -3.6383263     -2.7448356     -4.4405013      0.28881029     0.37677608     0.070059108  
    369000   296.59114     -3.6483146     -2.7643064     -4.4410017      0.28805347     0.37482781     0.063748777  
    370000   294.60393     -3.6436297     -2.7655446     -4.4386257      0.28747017     0.37879348     0.065377058  
    371000   299.05279     -3.6490584     -2.7577131     -4.4404773      0.28678488     0.37023913     0.068973027  
    372000   302.17674     -3.6482507     -2.7475943     -4.4404463      0.28234544     0.37548884     0.066924103  
    373000   299.58428     -3.639179      -2.7462496     -4.436153       0.28761308     0.37559292     0.065188436  
    374000   297.4579      -3.6530605     -2.7664689     -4.4408415      0.28144726     0.37000177     0.069326768  
    375000   297.79313     -3.6603248     -2.772734      -4.4361705      0.28137839     0.36317359     0.062244898  
    376000   300.3482      -3.6563156     -2.7611093     -4.4399182      0.28264035     0.37023657     0.06706851   
    377000   300.0713      -3.6434855     -2.7491045     -4.4401865      0.2860738      0.37664837     0.065223315  
    378000   303.44944     -3.6498137     -2.7453639     -4.4360803      0.28170651     0.37648032     0.063495871  
    379000   301.59386     -3.6486662     -2.7497471     -4.4378682      0.28275138     0.37374179     0.065709966  
    380000   298.1881      -3.6547644     -2.7659963     -4.4428816      0.28386468     0.37136279     0.067693659  
    381000   292.70223     -3.6401263     -2.7677093     -4.4350824      0.28797537     0.37326761     0.067564961  
    382000   299.28791     -3.6512429     -2.7591968     -4.4444382      0.2824907      0.37489024     0.067406263  
    383000   296.80413     -3.6396749     -2.7550318     -4.4346013      0.28462109     0.37690398     0.066423812  
    384000   302.56507     -3.6547305     -2.7529166     -4.4423742      0.28847402     0.36683833     0.064532485  
    385000   296.56999     -3.6358517     -2.7519066     -4.4369823      0.29124352     0.37477618     0.068017839  
    386000   302.12864     -3.6535363     -2.7530232     -4.4379828      0.27743127     0.37643072     0.064365     
    387000   299.08756     -3.6493259     -2.7578769     -4.4419256      0.28379693     0.3716144      0.065662342  
    388000   298.17818     -3.6483989     -2.7596605     -4.4352336      0.28217061     0.37035411     0.066260308  
    389000   301.7804      -3.6510943     -2.7516192     -4.4374402      0.28171954     0.36878633     0.069881076  
    390000   301.87496     -3.6393369     -2.7395799     -4.4323015      0.28629948     0.3702734      0.069075411  
    391000   303.65926     -3.6437389     -2.7386637     -4.4318046      0.28380774     0.36931116     0.067894261  
    392000   297.8554      -3.6454882     -2.7577118     -4.4352944      0.28745129     0.37021251     0.064706129  
    393000   298.27625     -3.6516296     -2.7625989     -4.4344023      0.27809987     0.37142977     0.065732891  
    394000   300.65908     -3.6501114     -2.7539784     -4.4364514      0.27963709     0.37000016     0.066197848  
    395000   299.09433     -3.6361025     -2.7446335     -4.4363717      0.28267595     0.37998223     0.068357177  
    396000   302.38135     -3.6450289     -2.7437626     -4.4339983      0.28591135     0.37211268     0.065479114  
    397000   298.68939     -3.6487089     -2.7584468     -4.4346146      0.28426632     0.37189168     0.063581309  
    398000   297.45249     -3.6569939     -2.7704185     -4.4406268      0.2840656      0.36440966     0.067813354  
    399000   298.9354      -3.6545388     -2.7635434     -4.4389276      0.28987819     0.36383786     0.063216428  
    400000   300.22853     -3.6481644     -2.7533148     -4.4419957      0.28911315     0.3725325      0.066621748  
    401000   301.6638      -3.6475547     -2.7484272     -4.4432011      0.28641533     0.37429958     0.067405254  
    402000   298.85562     -3.6410417     -2.7502841     -4.4378502      0.28661013     0.37826226     0.065929292  
    403000   299.59687     -3.6544101     -2.7614432     -4.4418241      0.28600225     0.37269445     0.065526141  
    404000   297.18866     -3.6628993     -2.7771102     -4.4412354      0.28347928     0.36734673     0.06436616   
    405000   299.57204     -3.6615785     -2.7686856     -4.4443461      0.28703722     0.36572774     0.063183956  
    406000   298.6122      -3.6460532     -2.7560212     -4.4362417      0.29018733     0.36673651     0.065690242  
    407000   301.72109     -3.6494508     -2.7501525     -4.4411728      0.28679036     0.37093668     0.06726291   
    408000   301.44671     -3.6471131     -2.7486326     -4.4407129      0.29176549     0.37194673     0.064886272  
    409000   299.33101     -3.6444341     -2.7522596     -4.4396578      0.28686984     0.37749333     0.064790918  
    410000   298.12188     -3.655595      -2.7670244     -4.4384615      0.28486302     0.36658159     0.064724673  
    411000   294.83364     -3.648249      -2.7694791     -4.4350622      0.28758393     0.36943517     0.065946742  
    412000   301.14381     -3.6523993     -2.7548216     -4.4397587      0.28315588     0.37290529     0.06471488   
    413000   300.02108     -3.6435479     -2.7493165     -4.4366846      0.28363496     0.37472293     0.067185475  
    414000   301.12576     -3.6460877     -2.7485638     -4.4348401      0.28684653     0.36828035     0.067739464  
    415000   299.16155     -3.6389626     -2.7472932     -4.4388267      0.29367994     0.37290511     0.067745302  
    416000   300.66        -3.645041      -2.7489053     -4.4340049      0.28886642     0.36812784     0.066903877  
    417000   301.23955     -3.6534043     -2.7555413     -4.4362394      0.28506876     0.36756045     0.064414289  
    418000   296.90932     -3.6475772     -2.7626207     -4.4402152      0.28863507     0.36955575     0.068125291  
    419000   298.7773      -3.6514904     -2.7609662     -4.4393451      0.28548661     0.36695832     0.067376535  
    420000   302.84264     -3.6477891     -2.745148      -4.4404821      0.28718577     0.37416399     0.063867947  
    421000   301.8479      -3.6397644     -2.7400881     -4.434329       0.28777483     0.37424841     0.065502362  
    422000   299.79267     -3.640911      -2.7473605     -4.4328228      0.29229103     0.36707209     0.065867686  
    423000   297.46398     -3.6412932     -2.7546834     -4.4385358      0.28924527     0.38059459     0.060898928  
    424000   299.48539     -3.6498039     -2.7571692     -4.4383357      0.28632096     0.37252016     0.064166951  
    425000   299.17129     -3.6488326     -2.7571341     -4.4345828      0.28284452     0.36623025     0.06992497   
    426000   300.39058     -3.6491547     -2.7538221     -4.4389439      0.28420054     0.36997075     0.067156075  
    427000   301.00874     -3.6451251     -2.74795       -4.4379664      0.28547816     0.37489992     0.067968316  
    428000   304.14932     -3.6412797     -2.7347439     -4.4437574      0.29256039     0.37821978     0.06558432   
    429000   305.95091     -3.6372706     -2.7253651     -4.4370006      0.29134306     0.37402279     0.068758869  
    430000   302.84906     -3.6473364     -2.7446761     -4.440093       0.2860581      0.37648901     0.065743428  
    431000   298.91641     -3.6449574     -2.7540186     -4.4397446      0.28903644     0.36989488     0.067934998  
    432000   300.93873     -3.6568638     -2.7598974     -4.4422308      0.28403637     0.37413116     0.065258125  
    433000   299.46606     -3.6554056     -2.7628285     -4.4406189      0.28498711     0.36939766     0.064753468  
    434000   300.70044     -3.6502602     -2.754004      -4.4386669      0.28659502     0.37196769     0.06375495   
    435000   302.27759     -3.6422991     -2.7413421     -4.4337778      0.28848629     0.37028536     0.067537876  
    436000   301.47422     -3.6417988     -2.7432363     -4.4392084      0.28458119     0.37824961     0.06611449   
    437000   297.90985     -3.6398457     -2.7519071     -4.4379377      0.28963968     0.37645357     0.064165237  
    438000   299.81846     -3.6488512     -2.7552238     -4.4406366      0.28143625     0.37698678     0.066114712  
    439000   301.87505     -3.6546787     -2.7549215     -4.4421798      0.2847731      0.36938658     0.066870022  
    440000   297.031       -3.6376387     -2.7523195     -4.4408178      0.29435531     0.37676688     0.066051574  
    441000   298.49945     -3.6354394     -2.7457434     -4.4420759      0.28981138     0.38317411     0.066484106  
    442000   303.62369     -3.6400855     -2.7351164     -4.441534       0.28937766     0.37763807     0.065619841  
    443000   303.37249     -3.641247      -2.7370266     -4.4413581      0.28927385     0.37755621     0.06771419   
    444000   299.35108     -3.6476043     -2.75537       -4.4405705      0.28322542     0.37161116     0.070024452  
    445000   297.98568     -3.6462901     -2.7581254     -4.4366506      0.28524168     0.37223662     0.067711552  
    446000   300.22286     -3.6487719     -2.7539392     -4.4377533      0.28717796     0.36755913     0.067706708  
    447000   303.33737     -3.6462109     -2.7420952     -4.4380102      0.28626513     0.37420713     0.065680662  
    448000   303.74407     -3.6400195     -2.7346916     -4.4405074      0.29192884     0.37703453     0.064283592  
    449000   299.58046     -3.6455961     -2.7526781     -4.4408294      0.29034013     0.37365035     0.065642027  
    450000   299.26489     -3.6540239     -2.7620465     -4.4336984      0.2770966      0.36880624     0.066415619  
    451000   298.6089      -3.6475775     -2.7575553     -4.4365967      0.28492928     0.37295309     0.064034423  
    452000   301.52632     -3.6443109     -2.7455931     -4.4419909      0.29002908     0.37269007     0.067783434  
    453000   300.93038     -3.6372449     -2.7403033     -4.4444689      0.29400823     0.37598056     0.070406992  
    454000   301.87691     -3.6471415     -2.7473788     -4.4434664      0.28671442     0.37674639     0.066242623  
    455000   296.08398     -3.6479632     -2.7654667     -4.4382279      0.28664975     0.3727091      0.066235307  
    456000   297.0523      -3.647635      -2.7622523     -4.4385309      0.28514104     0.37291187     0.066388071  
    457000   301.80504     -3.6510514     -2.7515029     -4.4410347      0.28576709     0.37032293     0.066113518  
    458000   298.72545     -3.6356184     -2.7452488     -4.433176       0.2936074      0.37205566     0.066021194  
    459000   303.00137     -3.6500512     -2.7469369     -4.4369174      0.28710624     0.37052135     0.06439136   
    460000   296.1004      -3.6481803     -2.7656348     -4.4366382      0.28810664     0.36715284     0.066844357  
    461000   295.47895     -3.651864      -2.7711708     -4.4412037      0.28660312     0.37162774     0.066406795  
    462000   300.38004     -3.6553186     -2.7600173     -4.4354826      0.28371989     0.36659293     0.064206438  
    463000   299.27279     -3.6426658     -2.7506648     -4.4393163      0.29275669     0.3700464      0.066388347  
    464000   297.60183     -3.6354295     -2.7484089     -4.4381073      0.2896198      0.37693685     0.067237924  
    465000   300.5787      -3.6464022     -2.7505089     -4.4423985      0.29006047     0.37238981     0.06827408   
    466000   296.31696     -3.6486022     -2.7654113     -4.443071       0.28836463     0.37549291     0.067051624  
    467000   297.41754     -3.6584843     -2.772013      -4.4450181      0.27992922     0.37652258     0.066513968  
    468000   299.93885     -3.6559495     -2.7619632     -4.4422793      0.28914489     0.36546898     0.063546592  
    469000   299.05326     -3.6431244     -2.7517777     -4.4395497      0.28796103     0.37685514     0.066350136  
    470000   300.37045     -3.6460687     -2.7507961     -4.4397854      0.28955851     0.37020061     0.065165846  
    471000   298.61534     -3.6431342     -2.7530927     -4.4412163      0.29090308     0.37512987     0.066104495  
    472000   299.67671     -3.6545902     -2.7613853     -4.4469148      0.28698813     0.36991324     0.068138981  
    473000   294.69954     -3.653189      -2.7748189     -4.444686       0.29224417     0.36663167     0.065785733  
    474000   296.64409     -3.6576792     -2.7735132     -4.4471668      0.28589173     0.3718193      0.066220736  
    475000   302.85804     -3.65574       -2.7530529     -4.4420354      0.28661434     0.36837054     0.06503803   
    476000   300.20619     -3.6448937     -2.7501106     -4.4400874      0.2905535      0.37502642     0.066925634  
    477000   298.68092     -3.6426613     -2.7524244     -4.4398621      0.29320968     0.37346523     0.065023163  
    478000   297.19851     -3.6439925     -2.758174      -4.4406582      0.28725885     0.37957455     0.06428849   
    479000   298.06961     -3.6545761     -2.7661612     -4.4428835      0.28802268     0.37377176     0.063865349  
    480000   295.67935     -3.6498321     -2.7685416     -4.4447033      0.28730127     0.37367326     0.068238705  
    481000   300.6131      -3.6487518     -2.7527559     -4.4408147      0.28737725     0.37139544     0.067393182  
    482000   301.78936     -3.6439338     -2.744432      -4.4427578      0.2929767      0.37563562     0.066414759  
    483000   301.32607     -3.6458418     -2.7477209     -4.4416631      0.28747741     0.37383576     0.065837986  
    484000   300.38037     -3.6543616     -2.7590594     -4.441338       0.28261716     0.37151737     0.067027274  
    485000   299.7816      -3.6613241     -2.7678066     -4.4461385      0.28567504     0.369417       0.06708132   
    486000   298.70958     -3.6530036     -2.7626813     -4.4412571      0.28301781     0.37340871     0.067679525  
    487000   306.39781     -3.6557404     -2.7425028     -4.4496995      0.29529213     0.36842505     0.065887644  
    488000   301.42497     -3.6413048     -2.7428891     -4.4433581      0.29145082     0.37744374     0.068526942  
    489000   300.15372     -3.6501051     -2.7554784     -4.4435814      0.29041465     0.37327109     0.065724136  
    490000   297.83845     -3.64992       -2.7621942     -4.4427319      0.2875623      0.37442128     0.064813574  
    491000   300.32169     -3.6559052     -2.7607779     -4.4440115      0.28688013     0.36929822     0.064472425  
    492000   301.7817      -3.6458911     -2.7464121     -4.43989        0.28631176     0.37413719     0.066099517  
    493000   301.69721     -3.6349165     -2.7356894     -4.4376338      0.29108167     0.37697339     0.068985913  
    494000   299.40373     -3.6358651     -2.7434738     -4.4380669      0.29033985     0.37786196     0.066614288  
    495000   299.23364     -3.6446832     -2.7527989     -4.4384656      0.28754095     0.37174648     0.066745477  
    496000   300.05038     -3.6497368     -2.7554181     -4.4383463      0.28327816     0.37631979     0.065854973  
    497000   300.12686     -3.6493643     -2.7548177     -4.4380292      0.28663507     0.36602581     0.067348579  
    498000   300.23565     -3.6455838     -2.7507129     -4.4376631      0.28195829     0.3791987      0.064198296  
    499000   306.13332     -3.6444449     -2.7319956     -4.4366251      0.28069895     0.37721751     0.067363091  
    500000   302.8829      -3.6357051     -2.7329439     -4.4354354      0.29448403     0.37252903     0.065473728  
    501000   300.70947     -3.6426494     -2.7463663     -4.4334684      0.2821282      0.37462433     0.067552045  
    502000   299.34241     -3.6439107     -2.7517022     -4.433567       0.28444436     0.37081385     0.067624205  
    503000   299.8085      -3.6480552     -2.7544575     -4.4353878      0.28788234     0.36809216     0.066747028  
    504000   297.87182     -3.6452794     -2.757454      -4.4367431      0.28430375     0.3704675      0.069621728  
    505000   295.67001     -3.6445708     -2.7633081     -4.4377372      0.28470616     0.37551739     0.06779862   
    506000   300.28743     -3.6580708     -2.7630456     -4.4360764      0.27989722     0.36641885     0.067569222  
    507000   301.85985     -3.6509809     -2.751269      -4.4415931      0.28782029     0.37060175     0.0682563    
    508000   302.52275     -3.6437846     -2.7420969     -4.4393023      0.29431197     0.37034308     0.067024068  
    509000   300.14812     -3.6400813     -2.7454713     -4.4343118      0.28956398     0.37298416     0.068996534  
    510000   298.91778     -3.6522775     -2.7613346     -4.4389863      0.28224967     0.37419078     0.064348747  
    511000   297.93994     -3.6564754     -2.768447      -4.4436519      0.28440644     0.3698841      0.067412326  
    512000   299.83525     -3.655225      -2.7615476     -4.4436752      0.28166544     0.37198936     0.067609353  
    513000   299.68871     -3.6450987     -2.751858      -4.4418394      0.28627864     0.37806827     0.067191396  
    514000   299.73644     -3.6398028     -2.7464198     -4.4418856      0.29072436     0.3780678      0.065838451  
    515000   300.74367     -3.6443328     -2.7479477     -4.4376617      0.28514327     0.37193776     0.068890517  
    516000   296.73651     -3.6480936     -2.7636522     -4.4340518      0.28054604     0.37047234     0.065938202  
    517000   299.23466     -3.661683      -2.7697957     -4.4453158      0.27830654     0.37427304     0.067249728  
    518000   299.36566     -3.6521508     -2.759873      -4.4436377      0.28802374     0.37262484     0.065895298  
    519000   301.39549     -3.6482774     -2.7499496     -4.4411134      0.28316019     0.37902226     0.065046069  
    520000   301.06871     -3.645696      -2.7483422     -4.4412046      0.28495945     0.38006878     0.063803905  
    521000   296.85604     -3.6360892     -2.7512915     -4.4368958      0.28541275     0.38268782     0.067644614  
    522000   299.63321     -3.648655      -2.7555798     -4.4375251      0.28457839     0.37517732     0.062894133  
    523000   298.04151     -3.6576298     -2.7692987     -4.4457608      0.28434868     0.37421241     0.064489732  
    524000   296.78304     -3.6602965     -2.7757163     -4.445004       0.28706596     0.36822142     0.065841148  
    525000   298.01576     -3.6497024     -2.761448      -4.4423102      0.29223378     0.37351447     0.065544306  
    526000   299.44212     -3.6458044     -2.7532987     -4.4404155      0.2916161      0.37276425     0.066080591  
    527000   299.93009     -3.6459152     -2.7519551     -4.4441558      0.28998705     0.37745259     0.066462512  
    528000   299.56079     -3.6510976     -2.7582382     -4.4431257      0.28469323     0.37160806     0.067121616  
    529000   299.01245     -3.6612453     -2.7700203     -4.4493747      0.28591036     0.37089049     0.064161976  
    530000   298.90567     -3.6654639     -2.7745571     -4.4501059      0.29042733     0.36712845     0.062962177  
    531000   297.69966     -3.644555      -2.7572428     -4.4417656      0.2929775      0.37066417     0.065567136  
    532000   302.41437     -3.6485311     -2.7471664     -4.4441243      0.28993515     0.37565078     0.063810299  
    533000   300.69696     -3.6456367     -2.7493909     -4.4403291      0.28540504     0.37143368     0.068054986  
    534000   298.20139     -3.647697      -2.7588894     -4.4429754      0.28836596     0.37558221     0.065689809  
    535000   298.65669     -3.6557498     -2.7655851     -4.4424545      0.28344013     0.3735127      0.065193415  
    536000   298.06418     -3.6489657     -2.760567      -4.4425518      0.28417607     0.37471802     0.068403929  
    537000   304.12853     -3.6496164     -2.7431426     -4.4366136      0.29317237     0.36404036     0.064841136  
    538000   302.75577     -3.6432156     -2.7408333     -4.438055       0.28885326     0.37037363     0.067665906  
    539000   300.60399     -3.6466376     -2.7506688     -4.4365324      0.28673383     0.36997948     0.065914641  
    540000   297.33227     -3.6483028     -2.7620857     -4.4449768      0.28966993     0.37072594     0.06943134   
    541000   296.89619     -3.6472632     -2.7623458     -4.4430462      0.28787466     0.37284049     0.06611224   
    542000   299.56398     -3.651634      -2.7587651     -4.4443483      0.28997068     0.36957631     0.064894825  
    543000   300.35159     -3.650708      -2.7554915     -4.4427755      0.28427929     0.37542676     0.066956568  
    544000   302.50775     -3.6494494     -2.7478064     -4.4405211      0.28910976     0.37458498     0.06237387   
    545000   306.53308     -3.6448857     -2.7312449     -4.4380966      0.29461249     0.36748614     0.066637837  
    546000   303.704       -3.6441204     -2.7389119     -4.4391118      0.29419916     0.36830999     0.067282972  
    547000   301.75971     -3.6510994     -2.7516859     -4.4467744      0.28630505     0.37561528     0.068403291  
    548000   299.13581     -3.6492533     -2.7576606     -4.4407906      0.2880071      0.37161582     0.066646883  
    549000   300.62122     -3.6585167     -2.7624966     -4.4475602      0.28460897     0.37308616     0.063855784  
    550000   298.2722      -3.6568751     -2.7678565     -4.4458111      0.28268741     0.37437591     0.066183392  
    551000   296.61967     -3.6558498     -2.7717566     -4.4440805      0.28927566     0.37102022     0.064300429  
    552000   298.86298     -3.6540589     -2.7632794     -4.4422779      0.28453445     0.3723864      0.065127828  
    553000   301.91933     -3.6492022     -2.749313      -4.4458649      0.28795832     0.37493326     0.065312388  
    554000   302.4076      -3.6479757     -2.7466312     -4.4429948      0.28980226     0.37472323     0.063924653  
    555000   299.86903     -3.6483988     -2.7546206     -4.4424996      0.29174234     0.36921259     0.066602053  
    556000   297.64761     -3.6559484     -2.7687913     -4.4375849      0.28288585     0.36776317     0.064882651  
    557000   298.33623     -3.6568475     -2.767638      -4.4435283      0.28646015     0.36764597     0.066229278  
    558000   301.0786      -3.6592142     -2.7618309     -4.4468249      0.28920995     0.37062381     0.063585303  
    559000   301.07993     -3.653325      -2.7559377     -4.4412242      0.28413573     0.37396663     0.066150056  
    560000   299.34667     -3.6424499     -2.7502287     -4.4372443      0.28855554     0.37182575     0.068827053  
    561000   303.17012     -3.6507624     -2.7471451     -4.4418906      0.29357095     0.36606218     0.066530838  
    562000   303.5161      -3.6554502     -2.7508017     -4.4405734      0.28807322     0.36931649     0.065070079  
    563000   298.31354     -3.6514736     -2.7623317     -4.4415517      0.29096028     0.37012156     0.065707619  
    564000   299.01522     -3.6569355     -2.7657022     -4.4449843      0.28495617     0.37183773     0.064367637  
    565000   301.28587     -3.6552644     -2.7572633     -4.4450828      0.28702081     0.37310279     0.066618166  
    566000   303.23067     -3.6480405     -2.7442428     -4.4414562      0.28564279     0.37392179     0.066756753  
    567000   302.41717     -3.6447531     -2.7433801     -4.4413937      0.28665218     0.37815307     0.067661181  
    568000   299.72034     -3.6584134     -2.7650784     -4.4398522      0.28668394     0.36347252     0.065355096  
    569000   298.24589     -3.6562201     -2.7672799     -4.4456292      0.28735836     0.37219209     0.065418122  
    570000   300.80662     -3.6553161     -2.7587434     -4.4467764      0.28985609     0.37159093     0.065714006  
    571000   296.5355      -3.633917      -2.7500746     -4.4365143      0.29360195     0.37799262     0.066406737  
    572000   299.9923      -3.640879      -2.7467334     -4.4398736      0.29323013     0.37351554     0.064228621  
    573000   301.03765     -3.65187       -2.7546087     -4.4415472      0.28635383     0.37079531     0.066585583  
    574000   296.10083     -3.6525946     -2.7700478     -4.4385194      0.28667979     0.36969059     0.068208121  
    575000   296.85974     -3.6528055     -2.7679967     -4.445871       0.28738473     0.37263305     0.06709307   
    576000   300.18886     -3.6511229     -2.7563915     -4.4387308      0.28916171     0.36704916     0.0646131    
    577000   300.96212     -3.6474371     -2.750401      -4.4367216      0.28884798     0.37272296     0.062643962  
    578000   299.35513     -3.6443834     -2.752137      -4.4474552      0.29195129     0.37381811     0.069062617  
    579000   297.98786     -3.6434458     -2.7552746     -4.4411545      0.28747458     0.37712791     0.066120004  
    580000   298.42385     -3.6459475     -2.7564769     -4.44109        0.28967172     0.37284748     0.064826066  
    581000   300.16545     -3.6522415     -2.7575798     -4.4368527      0.28194655     0.36815328     0.066800387  
    582000   300.7764      -3.6563108     -2.7598282     -4.4414501      0.28385216     0.36888185     0.066338887  
    583000   300.0366      -3.6560026     -2.761725      -4.4449636      0.28755919     0.36886112     0.066368978  
    584000   302.78119     -3.6599877     -2.7575297     -4.4452486      0.28269071     0.36901843     0.065950378  
    585000   302.97695     -3.6508822     -2.7478407     -4.4390526      0.28827515     0.36620297     0.067113824  
    586000   304.31052     -3.6499089     -2.7428926     -4.4419569      0.29166306     0.36954507     0.066930002  
    587000   302.448       -3.6496026     -2.7481377     -4.4408882      0.29035967     0.3677117      0.0659205    
    588000   297.8335      -3.6534494     -2.7657383     -4.4416507      0.28582541     0.3702765      0.065989632  
    589000   299.63286     -3.6592047     -2.7661305     -4.4383593      0.28012602     0.36992808     0.065255626  
    590000   298.35681     -3.645551      -2.7562802     -4.4445412      0.2871332      0.37713098     0.069249856  
    591000   300.39835     -3.6413137     -2.7459579     -4.438737       0.28630927     0.38156056     0.063493657  
    592000   300.94649     -3.6443001     -2.7473106     -4.4425485      0.28826515     0.3749861      0.068733861  
    593000   299.82207     -3.6455346     -2.7518965     -4.4407002      0.28624673     0.37445534     0.069434921  
    594000   296.92933     -3.6421291     -2.7571129     -4.4385632      0.28992066     0.37297379     0.066552274  
    595000   298.13693     -3.6485315     -2.759916      -4.4450215      0.29172776     0.37466953     0.065084132  
    596000   298.25201     -3.6437645     -2.754806      -4.4385588      0.29231246     0.37132791     0.063854492  
    597000   303.45186     -3.6418343     -2.7373774     -4.4405552      0.29060575     0.37429958     0.067987911  
    598000   302.92245     -3.6428431     -2.7399641     -4.4375931      0.29170286     0.37545067     0.065128185  
    599000   298.22343     -3.6432822     -2.7544089     -4.4380927      0.29220776     0.36938854     0.065771668  
    600000   300.1766      -3.6537104     -2.7590156     -4.4433509      0.28706752     0.37314172     0.063860448  
    601000   300.01031     -3.6510761     -2.7568768     -4.437901       0.28739754     0.36870957     0.062799643  
    602000   302.45172     -3.6498491     -2.7483731     -4.4432496      0.28557858     0.37995459     0.062167057  
    603000   303.88826     -3.638511      -2.7327533     -4.4416053      0.29087242     0.38217756     0.065204094  
    604000   302.52382     -3.6371728     -2.7354819     -4.4413555      0.28985606     0.38239065     0.065816889  
    605000   299.18953     -3.6462245     -2.7544716     -4.4375626      0.2892119      0.3712026      0.06357638   
    606000   298.76771     -3.64787       -2.7573744     -4.4407728      0.28805979     0.37429055     0.064693326  
    607000   300.77003     -3.653399      -2.7569354     -4.4386079      0.28624559     0.36687288     0.065824504  
    608000   301.94759     -3.6494147     -2.7494413     -4.4419912      0.28823608     0.37349639     0.066288246  
    609000   299.74125     -3.6384965     -2.7450993     -4.4351849      0.29532296     0.37063117     0.066273327  
    610000   300.04625     -3.6481967     -2.7538904     -4.4375677      0.28785483     0.36806104     0.067429662  
    611000   296.45126     -3.6517747     -2.7681834     -4.4420735      0.28568425     0.37305259     0.06591289   
    612000   299.20579     -3.6575593     -2.765758      -4.444423       0.29008742     0.36846173     0.064137213  
    613000   300.59417     -3.6512919     -2.7553525     -4.4408559      0.28443339     0.3720281      0.065740474  
    614000   302.02423     -3.6497474     -2.7495456     -4.4384317      0.28764654     0.36954673     0.068634103  
    615000   303.89369     -3.6567866     -2.7510127     -4.4379175      0.28536974     0.35953646     0.067050961  
    616000   298.75865     -3.6453612     -2.7548926     -4.4409175      0.28516278     0.37546624     0.06649804   
    617000   298.5626      -3.6476837     -2.7577995     -4.4430518      0.28840943     0.37427228     0.068345526  
    618000   298.16393     -3.6486991     -2.7600031     -4.4385001      0.28583038     0.37228583     0.064564575  
    619000   299.56373     -3.6572181     -2.7643499     -4.446869       0.28611491     0.37194459     0.066744319  
    620000   299.18119     -3.6582268     -2.7664988     -4.4381885      0.27854241     0.36593631     0.067154369  
    621000   302.19472     -3.6584942     -2.7577842     -4.4378108      0.28565284     0.36719544     0.063588307  
    622000   300.72509     -3.6419771     -2.7456474     -4.4416149      0.28895142     0.37750712     0.065934118  
    623000   301.18164     -3.6422177     -2.7445272     -4.4364543      0.28219063     0.37604974     0.064838895  
    624000   299.47281     -3.6495752     -2.7569781     -4.4420797      0.28136063     0.37693394     0.068515779  
    625000   300.29293     -3.6604639     -2.7654223     -4.4421734      0.27786803     0.37455349     0.062863439  
    626000   298.74417     -3.6519091     -2.7614837     -4.4403791      0.2830158      0.37267722     0.064632129  
    627000   301.89029     -3.6533691     -2.7535665     -4.4395692      0.27841494     0.37462091     0.065928199  
    628000   302.27186     -3.6477973     -2.7468574     -4.4395519      0.28670303     0.36899778     0.069707622  
    629000   301.81312     -3.6441561     -2.7445835     -4.4377154      0.28845979     0.36925        0.066601473  
    630000   300.98094     -3.6492654     -2.7521731     -4.4372774      0.28574847     0.37039444     0.064958851  
    631000   298.81925     -3.6551275     -2.7644783     -4.4394262      0.28373544     0.36962175     0.066054904  
    632000   298.0081      -3.6544946     -2.7662631     -4.4369953      0.28472969     0.36528792     0.066313097  
    633000   301.91016     -3.6523003     -2.7524385     -4.4418755      0.28837535     0.37074375     0.064324717  
    634000   302.13137     -3.6463598     -2.7458386     -4.4416027      0.28856281     0.37491216     0.066306946  
    635000   297.80539     -3.6365365     -2.7489092     -4.4399585      0.29096782     0.37869661     0.066323397  
    636000   299.16459     -3.644976      -2.7532975     -4.4416664      0.28710115     0.37832797     0.066373765  
    637000   298.17882     -3.6472983     -2.7585579     -4.4392275      0.28262591     0.37990612     0.064608761  
    638000   299.41931     -3.6630503     -2.7706126     -4.4468867      0.27960346     0.36835077     0.068149633  
    639000   292.06037     -3.6503938     -2.7798899     -4.4409455      0.2830188      0.37172104     0.067141522  
    640000   298.31094     -3.6553063     -2.7661722     -4.4378083      0.28180392     0.37017856     0.064569576  
    641000   297.35465     -3.6410507     -2.7547668     -4.4426231      0.29690594     0.37440303     0.06452632   
    642000   299.28059     -3.6422812     -2.7502569     -4.4357867      0.28580255     0.37597809     0.064686205  
    643000   301.78072     -3.6482096     -2.7487336     -4.4418507      0.28545632     0.37316111     0.066819064  
    644000   300.33183     -3.6506231     -2.7554656     -4.4402598      0.28631696     0.37080337     0.065837491  
    645000   296.7941      -3.6542038     -2.7695907     -4.4437775      0.28062932     0.37550276     0.067300116  
    646000   295.97091     -3.6502888     -2.7681293     -4.4417619      0.2908427      0.37094644     0.06555788   
    647000   299.52591     -3.647434      -2.7546785     -4.4367208      0.28843672     0.37026394     0.066447463  
    648000   302.07717     -3.6506555     -2.7502958     -4.4471075      0.28835957     0.37147814     0.070091903  
    649000   297.06367     -3.6373663     -2.7519497     -4.4362712      0.29197055     0.37448234     0.068058151  
    650000   300.85106     -3.6555975     -2.7588923     -4.439399       0.28746974     0.3635877      0.066967452  
    651000   297.31689     -3.65218       -2.7660087     -4.4401796      0.28445319     0.37194185     0.066194759  
    652000   296.08389     -3.653254      -2.7707578     -4.4446638      0.2848265      0.37463034     0.067057828  
    653000   298.13548     -3.6484468     -2.7598356     -4.4390353      0.28534536     0.37253278     0.066544542  
    654000   297.83907     -3.634937      -2.7472092     -4.4336687      0.28844378     0.37729123     0.068319153  
    655000   300.62859     -3.6412885     -2.7452465     -4.435455       0.2875524      0.37404802     0.069761484  
    656000   301.8216      -3.6512124     -2.7516145     -4.4356114      0.28601205     0.36831204     0.065735066  
    657000   296.81707     -3.6531692     -2.7684876     -4.4424669      0.28951316     0.37036508     0.068437971  
    658000   299.64852     -3.66272       -2.7695991     -4.4394107      0.28141101     0.36765673     0.063560132  
    659000   296.25409     -3.644877      -2.7618734     -4.4371782      0.29053627     0.37154081     0.067057639  
    660000   297.89616     -3.6435512     -2.7556533     -4.4372898      0.29011265     0.37221316     0.06415601   
    661000   298.94241     -3.6432963     -2.75228       -4.4426454      0.28919746     0.37677199     0.067891009  
    662000   297.88625     -3.6407221     -2.7528538     -4.4395194      0.28943004     0.3760912      0.06917404   
    663000   300.39452     -3.6574284     -2.762084      -4.4415943      0.28557086     0.36779076     0.066473943  
    664000   301.24155     -3.6694559     -2.7715869     -4.4421484      0.27847598     0.36516594     0.063545254  
    665000   298.037       -3.6524833     -2.7641656     -4.4391046      0.28776174     0.36823397     0.066489088  
    666000   298.56429     -3.6404535     -2.7505642     -4.4369026      0.2862059      0.37374549     0.069229901  
    667000   299.44627     -3.6417393     -2.7492212     -4.4402058      0.28713543     0.37730337     0.069713195  
    668000   300.08099     -3.6478019     -2.753392      -4.4357514      0.28178565     0.37446288     0.068023455  
    669000   297.23927     -3.6477538     -2.7618139     -4.438461       0.28766304     0.37010023     0.067525213  
    670000   294.77898     -3.6554412     -2.7768343     -4.4442682      0.27859685     0.37579782     0.065938826  
    671000   296.672       -3.6583323     -2.7740831     -4.4430857      0.28390219     0.36630176     0.066257966  
    672000   298.46554     -3.6470768     -2.7574818     -4.4391066      0.28733626     0.37316082     0.065447456  
    673000   300.22935     -3.6472039     -2.7523518     -4.4383008      0.28539741     0.37231046     0.066701216  
    674000   300.36889     -3.6454231     -2.7501552     -4.4426899      0.28601813     0.37847108     0.066214158  
    675000   299.49937     -3.6498231     -2.7571467     -4.4427268      0.2836515      0.37295574     0.066492508  
    676000   297.97467     -3.657013      -2.7688811     -4.4471553      0.29229929     0.36293982     0.068486645  
    677000   297.0178      -3.6575742     -2.7722943     -4.4429442      0.28409495     0.36854196     0.065069422  
    678000   297.17318     -3.6373633     -2.7516203     -4.4375913      0.28780714     0.37821013     0.067237516  
    679000   302.09096     -3.6465323     -2.7461316     -4.4410492      0.2829944      0.37222035     0.06820638   
    680000   299.82388     -3.6456191     -2.7519755     -4.4367744      0.28272279     0.37494377     0.069307949  
    681000   297.26087     -3.6464619     -2.7604575     -4.4389213      0.279516       0.37735606     0.06544873   
    682000   297.7937      -3.6502272     -2.7626347     -4.4390592      0.28694961     0.37207955     0.063906908  
    683000   304.32705     -3.6562352     -2.7491697     -4.4381165      0.28300921     0.36927331     0.063971666  
    684000   299.73256     -3.6318241     -2.7384527     -4.4317302      0.29390787     0.37484569     0.063902067  
    685000   298.55471     -3.6337064     -2.7438457     -4.4386578      0.28853579     0.3802064      0.066968539  
    686000   300.58659     -3.6530764     -2.7571595     -4.4407897      0.28198133     0.37330025     0.06738808   
    687000   298.05132     -3.6479572     -2.7595969     -4.4421894      0.2853737      0.37748093     0.065213019  
    688000   297.80356     -3.6452549     -2.757633      -4.4400871      0.291276       0.37297317     0.066636251  
    689000   300.8431      -3.6494248     -2.7527433     -4.4353688      0.28472487     0.37180468     0.064303349  
    690000   302.58052     -3.6447402     -2.7428803     -4.4368287      0.28792807     0.37883872     0.06426915   
    691000   305.05441     -3.6440733     -2.7348398     -4.4383714      0.29141625     0.37333167     0.066415238  
    692000   301.56439     -3.6457928     -2.7469615     -4.4368349      0.28797106     0.36720219     0.068417509  
    693000   300.38892     -3.6546863     -2.7593586     -4.4381765      0.28440846     0.36871988     0.063675625  
    694000   296.91349     -3.6461074     -2.7611384     -4.4373292      0.28955345     0.3706695      0.064661832  
    695000   297.92323     -3.6463139     -2.7583354     -4.4450056      0.28572297     0.37984571     0.066791884  
    696000   299.14048     -3.6421886     -2.7505819     -4.4390152      0.28998267     0.37640305     0.0663652    
    697000   302.06782     -3.6392968     -2.738965      -4.4376126      0.28986226     0.3742335      0.066829961  
    698000   302.2351      -3.6414061     -2.7405757     -4.4390275      0.28859936     0.37820667     0.065558055  
    699000   299.59829     -3.6521945     -2.7592234     -4.4408462      0.28294511     0.37113877     0.067383319  
    700000   298.08907     -3.6513254     -2.7628525     -4.4403733      0.28241836     0.37624426     0.066704072  
    701000   301.07788     -3.6548763     -2.7574951     -4.4424187      0.2851969      0.3709092      0.066238807  
    702000   301.02905     -3.6454155     -2.7481798     -4.4367388      0.28286703     0.37353831     0.068259381  
    703000   302.72564     -3.6450323     -2.7427399     -4.4407298      0.28462236     0.37801857     0.066635094  
    704000   303.04335     -3.6502723     -2.7470329     -4.4376514      0.28431169     0.36970888     0.068283886  
    705000   297.98494     -3.6509267     -2.7627642     -4.4399878      0.2838654      0.37472744     0.065299293  
    706000   296.79308     -3.6516611     -2.767051      -4.440279       0.28678079     0.37172121     0.063995994  
    707000   296.27101     -3.6425171     -2.7594631     -4.4389062      0.28775685     0.37769533     0.065795816  
    708000   301.48123     -3.6446831     -2.7460997     -4.4368228      0.28706539     0.37405638     0.065428429  
    709000   303.65852     -3.6522457     -2.7471727     -4.4416881      0.28701426     0.37070941     0.064228294  
    710000   298.61704     -3.644199      -2.7541525     -4.4418127      0.29014513     0.37331444     0.066944513  
    711000   300.22073     -3.6535285     -2.7587021     -4.4464096      0.2879179      0.37111025     0.066934194  
    712000   299.17885     -3.6528647     -2.7611437     -4.4419307      0.28971305     0.36857165     0.063779971  
    713000   296.00819     -3.6421426     -2.7598719     -4.4383241      0.28992564     0.37342732     0.06494539   
    714000   300.22024     -3.6524079     -2.757583      -4.4476793      0.28540693     0.37582943     0.067511498  
    715000   299.16311     -3.6468107     -2.7551366     -4.4419671      0.28556074     0.3708092      0.069905474  
    716000   300.86977     -3.649016      -2.7522551     -4.4433159      0.2880109      0.37086367     0.066615407  
    717000   298.62175     -3.6450739     -2.7550134     -4.4370309      0.28577616     0.37401914     0.066879002  
    718000   300.92684     -3.6614751     -2.7645441     -4.4437791      0.28031601     0.37002188     0.064338198  
    719000   297.62045     -3.6557211     -2.768645      -4.4425569      0.28400828     0.37002515     0.066749041  
    720000   299.86327     -3.6521173     -2.7583563     -4.4373654      0.28367229     0.37158023     0.065589769  
    721000   300.23007     -3.6407384     -2.7458842     -4.441647       0.29372904     0.37544822     0.065268302  
    722000   303.07164     -3.6488563     -2.7455326     -4.4419381      0.29194393     0.36861152     0.066427318  
    723000   299.06085     -3.6438138     -2.7524445     -4.442915       0.29320405     0.37176316     0.066674621  
    724000   300.88748     -3.6574863     -2.7606726     -4.4489229      0.29022396     0.36737101     0.067791223  
    725000   294.87585     -3.6454628     -2.7665672     -4.4411358      0.29720262     0.36640634     0.0660852    
    726000   295.5781      -3.6590881     -2.7780993     -4.4443319      0.28854646     0.36899474     0.063972047  
    727000   295.09008     -3.6544392     -2.774905      -4.4454238      0.28958478     0.37044259     0.065948593  
    728000   301.26663     -3.6559111     -2.7579673     -4.4405892      0.29130259     0.36493454     0.065227878  
    729000   299.30547     -3.6405752     -2.7484768     -4.4406327      0.28873337     0.37817288     0.067637283  
    730000   299.62437     -3.6389986     -2.7459497     -4.4366702      0.29226722     0.37216713     0.064528721  
    731000   298.11103     -3.6399218     -2.7513835     -4.4423092      0.29154532     0.37609831     0.066255039  
    732000   298.33755     -3.6546487     -2.7654352     -4.4390901      0.28879116     0.36747523     0.062010681  
    733000   298.94507     -3.6607025     -2.7696783     -4.4487795      0.28658287     0.36843137     0.067079556  
    734000   299.38548     -3.6487465     -2.7564097     -4.4408654      0.28649427     0.37052631     0.068676079  
    735000   302.37593     -3.6454856     -2.7442355     -4.4424549      0.28556291     0.37501265     0.068949979  
    736000   301.94654     -3.6471488     -2.7471785     -4.4352885      0.28497212     0.36786398     0.067298919  
    737000   300.6637      -3.6503284     -2.7541817     -4.4323876      0.28486131     0.36532048     0.067205599  
    738000   299.803       -3.6562435     -2.7626621     -4.440724       0.28204692     0.36836655     0.066602787  
    739000   299.22844     -3.6574037     -2.7655349     -4.4386719      0.28195737     0.36785426     0.064717612  
    740000   297.35457     -3.6440539     -2.7577703     -4.4390338      0.28637442     0.37105849     0.06938335   
    741000   301.33898     -3.642067      -2.7439076     -4.4398506      0.29173627     0.36720235     0.068621588  
    742000   302.69161     -3.6446523     -2.7424613     -4.4350424      0.28578951     0.37054034     0.067237495  
    743000   300.44138     -3.6491023     -2.7536182     -4.4397742      0.28886658     0.37061815     0.064776221  
    744000   300.13772     -3.65912       -2.764541      -4.4398181      0.28388839     0.36165366     0.068150145  
    745000   299.84551     -3.6567994     -2.7630914     -4.4367757      0.28686869     0.36566344     0.062060769  
    746000   300.17857     -3.6520638     -2.7573631     -4.4379854      0.28758029     0.36707961     0.064964616  
    747000   300.52384     -3.6485847     -2.7528548     -4.4412927      0.28775237     0.37454013     0.068218392  
    748000   303.23397     -3.6541862     -2.7503786     -4.4393001      0.2836901      0.3718906      0.064041419  
    749000   301.75963     -3.6496616     -2.7502485     -4.4427791      0.28663188     0.37426134     0.065423242  
    750000   301.85208     -3.6545932     -2.7549045     -4.4473027      0.2909852      0.36826352     0.067097646  
    751000   298.66427     -3.6544341     -2.7642468     -4.4416716      0.28344712     0.37418216     0.065024408  
    752000   296.18736     -3.6487075     -2.7659028     -4.4423644      0.28356314     0.37780169     0.066793823  
    753000   299.20462     -3.6440697     -2.7522719     -4.4381544      0.28448225     0.37748137     0.06622498   
    754000   301.58351     -3.641094      -2.7422057     -4.4409549      0.28737305     0.38245727     0.065918328  
    755000   301.40772     -3.6433471     -2.7449828     -4.4368526      0.29156092     0.37189003     0.06498289   
    756000   301.71579     -3.6515106     -2.7522281     -4.4422233      0.28756266     0.37296461     0.06502169   
    757000   297.8637      -3.6465029     -2.7587018     -4.4382893      0.28428993     0.37619163     0.064534843  
    758000   301.64333     -3.6578613     -2.7587948     -4.4468181      0.2830062      0.37269354     0.066786491  
    759000   298.35335     -3.6395696     -2.750309      -4.4370508      0.28790411     0.37627882     0.066490021  
    760000   301.83204     -3.6416642     -2.7420352     -4.4368755      0.28538752     0.37168584     0.070688748  
    761000   301.8936      -3.6409365     -2.741124      -4.4378244      0.28800376     0.37528765     0.067063682  
    762000   297.65685     -3.6410148     -2.7538302     -4.4414574      0.28623477     0.3785685      0.066566635  
    763000   297.27435     -3.6479681     -2.7619236     -4.4400125      0.29064873     0.3683667      0.066455364  
    764000   298.9585      -3.6482078     -2.7571436     -4.4387549      0.28764421     0.37027356     0.066208925  
    765000   297.65178     -3.6368229     -2.7496534     -4.4405948      0.28766527     0.37915339     0.066383298  
    766000   301.31667     -3.6456172     -2.7475243     -4.4437473      0.29012792     0.37258775     0.069647467  
    767000   301.97891     -3.6495285     -2.7494617     -4.440034       0.28588262     0.37015711     0.064513852  
    768000   299.31205     -3.64638       -2.754262      -4.4426702      0.29062605     0.37454181     0.06556318   
    769000   299.68235     -3.6574297     -2.7642079     -4.4472565      0.28691452     0.37435255     0.063559949  
    770000   296.97035     -3.6627213     -2.7775829     -4.4425078      0.28223386     0.36806001     0.063198555  
    771000   298.75052     -3.6602232     -2.7697788     -4.4440032      0.28773041     0.36869375     0.064091785  
    772000   300.07883     -3.649428      -2.7550245     -4.4475032      0.28882269     0.37587193     0.068492298  
    773000   302.40512     -3.6537717     -2.7524346     -4.4425108      0.28505313     0.37196879     0.065548498  
    774000   300.86353     -3.6488924     -2.7521501     -4.4404762      0.28642628     0.37217156     0.066834508  
    775000   300.8037      -3.6509587     -2.7543947     -4.4360152      0.28075257     0.37165624     0.064808763  
    776000   299.25769     -3.6484119     -2.7564559     -4.4410631      0.28964114     0.37111301     0.065216858  
    777000   301.40035     -3.656361      -2.7580187     -4.4430168      0.28693788     0.36379663     0.066421117  
    778000   300.38996     -3.648778      -2.7534472     -4.4440847      0.28968443     0.37442009     0.067072265  
    779000   305.78773     -3.6549085     -2.7434893     -4.4421915      0.2849739      0.37176592     0.065846568  
    780000   301.38857     -3.6388794     -2.7405722     -4.4387876      0.28847268     0.37688734     0.066904551  
    781000   296.38339     -3.6404253     -2.7570363     -4.43886        0.2901739      0.37599841     0.065320839  
    782000   298.17083     -3.6532859     -2.7645694     -4.4409562      0.28846189     0.36965684     0.063639623  
    783000   297.6104      -3.6469804     -2.7599343     -4.4379256      0.29030403     0.37169799     0.064399142  
    784000   299.26045     -3.6423171     -2.7503529     -4.4375743      0.28935702     0.37590661     0.06481008   
    785000   300.80918     -3.6406258     -2.7440455     -4.435575       0.28893142     0.37707424     0.064195435  
    786000   300.55689     -3.6424302     -2.7466018     -4.4367477      0.2861429      0.37433335     0.068088967  
    787000   298.99427     -3.6556282     -2.7644574     -4.4434944      0.28702095     0.36909693     0.066329904  
    788000   297.14328     -3.6547238     -2.7690699     -4.4452898      0.28910845     0.36916718     0.067089418  
    789000   299.04657     -3.6494878     -2.7581611     -4.440307       0.28881491     0.36488621     0.068820487  
    790000   303.06006     -3.6492603     -2.7459711     -4.4373181      0.28568908     0.37393908     0.061377847  
    791000   298.46364     -3.6350661     -2.7454768     -4.4337221      0.28999127     0.37444258     0.06729493   
    792000   302.98534     -3.6548487     -2.7517822     -4.4430964      0.28664649     0.37055361     0.064418413  
    793000   296.57186     -3.6509132     -2.7669625     -4.4381107      0.28308362     0.3713396      0.065950805  
    794000   299.42598     -3.6610889     -2.7686313     -4.4412273      0.27987653     0.3682512      0.066922897  
    795000   296.37769     -3.6446148     -2.7612429     -4.4408139      0.28629789     0.38034276     0.06613167   
    796000   297.26675     -3.6430942     -2.7570724     -4.4373551      0.28773181     0.37727319     0.064167902  
    797000   298.64116     -3.6412226     -2.7511042     -4.4404967      0.29300804     0.37345383     0.067372038  
    798000   300.48313     -3.6425088     -2.7469004     -4.4398052      0.29119603     0.37096212     0.066654213  
    799000   300.34926     -3.6412495     -2.74604       -4.4423522      0.28709306     0.37962382     0.06896007   
    800000   299.81617     -3.6487425     -2.7551219     -4.4363423      0.28085826     0.37252065     0.066448503  
    801000   295.86913     -3.6466057     -2.7647495     -4.4367211      0.28483369     0.37225748     0.066777061  
    802000   298.8294      -3.6522688     -2.7615893     -4.4379463      0.28768941     0.36674547     0.065511896  
    803000   301.58265     -3.6434571     -2.7445714     -4.4358155      0.28930435     0.37204269     0.064346362  
    804000   302.41336     -3.6423426     -2.7409809     -4.4339464      0.2896178      0.3725225      0.065869892  
    805000   299.53259     -3.6400042     -2.7472288     -4.4372978      0.28416421     0.37783903     0.06626567   
    806000   297.7369      -3.6421491     -2.7547259     -4.4376805      0.28379185     0.37673625     0.068410068  
    807000   301.17273     -3.6584005     -2.7607366     -4.4411334      0.28272633     0.36797406     0.066693228  
    808000   298.38463     -3.651827      -2.7624732     -4.4366857      0.28515921     0.36661108     0.067373473  
    809000   298.05014     -3.6407838     -2.752427      -4.4413678      0.28861433     0.37976342     0.068213122  
    810000   301.74226     -3.6411141     -2.7417527     -4.4374915      0.2809122      0.37871917     0.069332558  
    811000   302.32035     -3.6461278     -2.7450434     -4.4358077      0.28457942     0.3719287      0.066692559  
    812000   301.35769     -3.6543271     -2.756112      -4.4414821      0.28621475     0.3721695      0.063359963  
    813000   298.38792     -3.6528714     -2.7635078     -4.431519       0.28155168     0.36979382     0.06160839   
    814000   299.21611     -3.6513145     -2.7594825     -4.4351321      0.28452368     0.36866168     0.066190711  
    815000   303.61506     -3.6437007     -2.7387572     -4.4336234      0.28562801     0.37130498     0.065949388  
    816000   301.31558     -3.6354806     -2.737391      -4.4330811      0.28801294     0.37416825     0.067071938  
    817000   299.11716     -3.6386305     -2.7470933     -4.4322774      0.29025197     0.37054864     0.066548961  
    818000   298.961       -3.6473551     -2.7562834     -4.4353678      0.28533991     0.36855254     0.066086033  
    819000   299.20558     -3.6483655     -2.7565648     -4.4432208      0.28583278     0.37223376     0.07071927   
    820000   297.98598     -3.6413645     -2.7531989     -4.4398255      0.2926491      0.37090555     0.068712024  
    821000   302.2172      -3.6530072     -2.7522303     -4.4387851      0.28724308     0.36920387     0.064678714  
    822000   295.8429      -3.6343119     -2.7525339     -4.4411918      0.29605731     0.37831727     0.068055872  
    823000   300.12218     -3.6469189     -2.7523863     -4.4413009      0.28690085     0.37375467     0.068359196  
    824000   301.30703     -3.6509429     -2.7528787     -4.4386626      0.28426726     0.37086216     0.065163837  
    825000   299.54912     -3.654035      -2.7612104     -4.4382067      0.28085166     0.37531501     0.063320296  
    826000   296.78597     -3.6533591     -2.7687703     -4.4416596      0.28269048     0.37358531     0.067049765  
    827000   299.59217     -3.6563411     -2.7633882     -4.4424693      0.28711424     0.36926543     0.066087264  
    828000   301.59737     -3.6471317     -2.7482021     -4.4393938      0.28845062     0.37054461     0.066769854  
    829000   300.59868     -3.6423532     -2.7464003     -4.4412316      0.28717256     0.37661108     0.06820692   
    830000   300.8191      -3.6482314     -2.7516216     -4.4371941      0.28933702     0.37175382     0.064294587  
    831000   299.7344      -3.6535034     -2.7601266     -4.4417226      0.28417357     0.36840314     0.068541751  
    832000   298.42971     -3.6656002     -2.7761121     -4.4458025      0.28823699     0.36239425     0.064851072  
    833000   297.51609     -3.6730791     -2.786314      -4.4422108      0.27946957     0.36190397     0.063602603  
    834000   300.21105     -3.6568121     -2.7620146     -4.4465089      0.28063708     0.37577036     0.066195267  
    835000   302.52364     -3.6544082     -2.7527179     -4.4464829      0.28955915     0.36838904     0.066981533  
    836000   300.62951     -3.6454727     -2.7494279     -4.4420094      0.29146273     0.3743865      0.065570145  
    837000   300.62086     -3.6492158     -2.7531968     -4.4415264      0.28859782     0.3689753      0.06653576   
    838000   296.19894     -3.6441281     -2.7612889     -4.4409961      0.29213425     0.36912989     0.068037126  
    839000   297.53223     -3.6528047     -2.7659916     -4.441835       0.29061452     0.36832445     0.066145019  
    840000   299.0409      -3.6496662     -2.7583563     -4.4401526      0.28813801     0.37026666     0.06683881   
    841000   300.34956     -3.637936      -2.7427256     -4.4368577      0.28991505     0.37640462     0.066494511  
    842000   301.92879     -3.6432156     -2.7432982     -4.4397392      0.28707148     0.37993142     0.063678088  
    843000   299.91224     -3.6465184     -2.7526115     -4.441026       0.28676688     0.37944639     0.065527162  
    844000   301.73567     -3.6573215     -2.7579797     -4.4458395      0.28501001     0.37349328     0.064752614  
    845000   300.82222     -3.6544445     -2.7578253     -4.444466       0.28326167     0.37285231     0.067700249  
    846000   299.72307     -3.6490451     -2.755702      -4.4418034      0.28953465     0.37245602     0.064406118  
    847000   302.32618     -3.6520955     -2.7509937     -4.4420794      0.28530715     0.37223548     0.067150224  
    848000   305.44924     -3.6474254     -2.7370152     -4.4413824      0.29175386     0.37358341     0.063790934  
    849000   304.51851     -3.6414765     -2.7338403     -4.4389501      0.29009422     0.37652254     0.063411944  
    850000   299.05336     -3.6416227     -2.7502757     -4.4408614      0.29120418     0.37547818     0.067679781  
    851000   302.13916     -3.6580494     -2.7575049     -4.4423362      0.28336252     0.37003395     0.063977188  
    852000   294.36711     -3.6381477     -2.7607684     -4.4413145      0.28990004     0.37932385     0.067781924  
    853000   299.01484     -3.6457368     -2.7545047     -4.4392709      0.2871303      0.37311304     0.066774135  
    854000   304.22065     -3.6468025     -2.7400541     -4.4343868      0.28209123     0.37309844     0.066477157  
    855000   304.18699     -3.6472401     -2.7405921     -4.4359121      0.28658008     0.37225514     0.066356624  
    856000   303.16616     -3.6527122     -2.7491067     -4.4390738      0.2882124      0.36911385     0.065862791  
    857000   300.50342     -3.6493542     -2.7536853     -4.4433828      0.28637134     0.3739209      0.067561306  
    858000   298.24664     -3.6466469     -2.7577044     -4.4409031      0.28691888     0.37308072     0.065663317  
    859000   299.19918     -3.6522573     -2.7604757     -4.4415228      0.28819615     0.37294171     0.063943027  
    860000   300.63559     -3.655935      -2.7598721     -4.4425973      0.28905661     0.36720111     0.064734586  
    861000   300.52768     -3.649224      -2.7534828     -4.4414059      0.28566548     0.37447923     0.065904368  
    862000   307.0906      -3.6602843     -2.7449819     -4.4454164      0.28119533     0.37041653     0.065383733  
    863000   300.36616     -3.6423848     -2.7471249     -4.443272       0.284747       0.38200668     0.066090454  
    864000   297.26326     -3.6490495     -2.7630381     -4.4402504      0.28052387     0.37716525     0.066257336  
    865000   297.22132     -3.654044      -2.7681576     -4.4431314      0.2818937      0.37565069     0.062864901  
    866000   300.03916     -3.6551891     -2.7609039     -4.4437782      0.29057241     0.3675141      0.064814789  
    867000   301.04159     -3.6524372     -2.7551641     -4.4436363      0.29149692     0.37132961     0.064441986  
    868000   297.30099     -3.6394457     -2.7533218     -4.4417022      0.28840019     0.38008823     0.065034952  
    869000   301.41363     -3.6527714     -2.7543895     -4.4433114      0.28288667     0.37575413     0.065471371  
    870000   296.47142     -3.639264      -2.7556127     -4.4416359      0.29320107     0.37241286     0.070843021  
    871000   297.78956     -3.6499165     -2.7623363     -4.4462648      0.29270933     0.37135613     0.065905102  
    872000   297.93016     -3.6568594     -2.7688601     -4.4414525      0.28557824     0.36723389     0.066735639  
    873000   298.76558     -3.6529327     -2.7624434     -4.4415077      0.28855542     0.36778792     0.068258563  
    874000   302.74327     -3.652121      -2.7497761     -4.4408363      0.28807463     0.36759783     0.066426413  
    875000   300.57783     -3.6406776     -2.7447868     -4.4320053      0.29047341     0.36490906     0.068029497  
    876000   303.47558     -3.6531814     -2.7486537     -4.4377418      0.28565892     0.36581535     0.06405091   
    877000   298.12604     -3.6560051     -2.7674221     -4.4401456      0.28544193     0.36683245     0.065880577  
    878000   299.93773     -3.6659991     -2.7720162     -4.4410032      0.27992354     0.36506893     0.063602623  
    879000   298.61843     -3.6516911     -2.7616404     -4.4373672      0.28350593     0.37320862     0.063864196  
    880000   299.72103     -3.6457453     -2.7524083     -4.4439713      0.28944585     0.37573174     0.06944764   
    881000   298.48358     -3.6386865     -2.7490378     -4.4435045      0.2982549      0.3760839      0.065185153  
    882000   299.02244     -3.6442969     -2.7530421     -4.4409348      0.29052064     0.37107193     0.067526066  
    883000   300.17599     -3.6665392     -2.7718461     -4.447651       0.28449068     0.3658729      0.065415657  
    884000   296.34538     -3.6575687     -2.774293      -4.4406956      0.28915461     0.36350012     0.06504875   
    885000   295.88687     -3.6463935     -2.7644845     -4.4413249      0.29210742     0.36640458     0.06632912   
    886000   300.36349     -3.6516591     -2.7564072     -4.4433894      0.28863711     0.3737228      0.065536108  
    887000   300.54439     -3.6482001     -2.752409      -4.4437726      0.29122415     0.3726123      0.063587759  
    888000   300.43745     -3.6475626     -2.7520902     -4.443571       0.28708961     0.37393735     0.068193515  
    889000   302.45563     -3.6630599     -2.7615723     -4.4456699      0.29303979     0.36093102     0.065740445  
    890000   298.73524     -3.6634714     -2.7730727     -4.4480703      0.28815458     0.36553588     0.064823282  
    891000   297.55115     -3.6539672     -2.7670977     -4.4418742      0.27986002     0.37274862     0.068237101  
    892000   300.7975      -3.6491829     -2.7526374     -4.442264       0.28356664     0.37445145     0.066696889  
    893000   301.37656     -3.6495309     -2.7512595     -4.4406181      0.28176841     0.37130208     0.070471102  
    894000   301.29012     -3.6533115     -2.7552978     -4.4397518      0.284427       0.36826974     0.066202295  
    895000   299.51458     -3.6539194     -2.7611977     -4.4410933      0.28496105     0.37292268     0.063045139  
    896000   297.68372     -3.6625728     -2.7753081     -4.4441272      0.28433804     0.36382314     0.068544561  
    897000   296.33783     -3.659347      -2.7760938     -4.4437165      0.28344255     0.36387283     0.068707327  
    898000   300.76927     -3.6561712     -2.7597098     -4.4451987      0.28419176     0.3701544      0.068186376  
    899000   302.84126     -3.6564502     -2.7538131     -4.4415579      0.28265393     0.37418722     0.064604547  
    900000   301.12612     -3.6497374     -2.7522124     -4.443484       0.28640054     0.37345732     0.0677566    
    901000   302.87185     -3.6570656     -2.7543374     -4.4479174      0.28675621     0.37193476     0.066246237  
    902000   298.62305     -3.6553696     -2.7653052     -4.4385407      0.2800323      0.37047368     0.068924556  
    903000   295.94614     -3.6550336     -2.7729479     -4.4417581      0.28130596     0.37068416     0.067793034  
    904000   300.28859     -3.6563964     -2.7613678     -4.4414248      0.28396363     0.36857544     0.065638123  
    905000   300.25833     -3.6431599     -2.7482214     -4.4392474      0.28978095     0.37303845     0.067668087  
    906000   300.70286     -3.6451156     -2.7488522     -4.4354079      0.28259406     0.37380247     0.065918787  
    907000   299.47188     -3.6473026     -2.7547082     -4.4403611      0.28714418     0.3726549      0.067821031  
    908000   298.56465     -3.6550665     -2.7651761     -4.4389223      0.28407412     0.36867303     0.065835239  
    909000   298.98443     -3.6645092     -2.7733676     -4.4425999      0.28486855     0.35929239     0.067872848  
    910000   301.0054      -3.6576619     -2.7604967     -4.4446115      0.28119669     0.37348163     0.065533566  
    911000   301.51306     -3.6461147     -2.7474364     -4.4403341      0.29693097     0.36291335     0.063765737  
    912000   300.15893     -3.6421974     -2.7475552     -4.4380682      0.28880404     0.37312961     0.066899531  
    913000   301.30946     -3.6551273     -2.7570558     -4.4378095      0.27755646     0.37062862     0.066901719  
    914000   299.29108     -3.6568855     -2.76483       -4.4418186      0.28157426     0.3664262      0.068202357  
    915000   300.01368     -3.6549701     -2.7607608     -4.4418034      0.27738795     0.37593488     0.064654429  
    916000   302.00607     -3.641591      -2.7414433     -4.4351765      0.29077118     0.36861766     0.068744186  
    917000   298.56205     -3.631737      -2.7418545     -4.4320403      0.29100111     0.37455905     0.06683502   
    918000   300.81318     -3.6465471     -2.7499548     -4.4410451      0.28456132     0.37660199     0.065825836  
    919000   299.52682     -3.6545165     -2.7617583     -4.4356776      0.28649039     0.36672708     0.062755045  
    920000   298.13833     -3.6509509     -2.7623312     -4.4354825      0.28703861     0.36478674     0.066268037  
    921000   299.8874      -3.6511609     -2.757328      -4.441882       0.28253887     0.37858457     0.06539008   
    922000   304.00803     -3.661113      -2.7549984     -4.4447479      0.28539283     0.36430317     0.06438926   
    923000   298.54971     -3.6452725     -2.7554267     -4.4408791      0.2905178      0.37438413     0.065504903  
    924000   298.01268     -3.6426121     -2.754367      -4.4402685      0.28578153     0.37894383     0.065665856  
    925000   301.3712      -3.6499971     -2.7517417     -4.4368584      0.28807784     0.36766788     0.065549591  
    926000   298.90945     -3.639109      -2.748191      -4.4408754      0.2872377      0.38117146     0.065587253  
    927000   299.44615     -3.6409994     -2.7484817     -4.4383216      0.28787203     0.38072205     0.064725045  
    928000   300.04218     -3.6507461     -2.7564519     -4.4404408      0.29246019     0.3662704      0.064524566  
    929000   297.59524     -3.6512792     -2.7642782     -4.4408017      0.28509614     0.37238512     0.066455727  
    930000   298.42017     -3.6526291     -2.7631694     -4.439516       0.28355637     0.3703037      0.065662349  
    931000   301.47436     -3.6437616     -2.7451987     -4.4379455      0.28743203     0.37353057     0.065964233  
    932000   301.04237     -3.6385658     -2.7412904     -4.4440866      0.29328887     0.37922207     0.067548702  
    933000   299.34035     -3.6415301     -2.7493277     -4.4362326      0.28924492     0.37236418     0.06827756   
    934000   298.62407     -3.6486983     -2.7586309     -4.4388911      0.28734098     0.37072197     0.065461817  
    935000   298.7053      -3.6516203     -2.7613107     -4.4427381      0.28685511     0.37134519     0.066560372  
    936000   299.00079     -3.6397106     -2.7485203     -4.4414999      0.28834006     0.38228578     0.064872788  
    937000   301.28048     -3.6346047     -2.7366196     -4.4358162      0.29383339     0.37405041     0.066422654  
    938000   302.49497     -3.6411147     -2.7395098     -4.4417444      0.29423873     0.37185823     0.065054162  
    939000   299.18081     -3.6460883     -2.7543614     -4.4398041      0.29500734     0.37040035     0.063946412  
    940000   295.14132     -3.639652      -2.7599651     -4.4386163      0.29057045     0.37727277     0.065708402  
    941000   296.66703     -3.6395257     -2.7552914     -4.438293       0.29456297     0.37333456     0.066336462  
    942000   302.87385     -3.6470369     -2.7443027     -4.4395078      0.28911116     0.37681046     0.063642058  
    943000   303.30283     -3.6392117     -2.7351989     -4.4347363      0.29292077     0.36973052     0.066795156  
    944000   303.46829     -3.6363573     -2.7318514     -4.4332855      0.29091749     0.37322181     0.067930692  
    945000   305.54553     -3.657221      -2.7465237     -4.4441703      0.28654239     0.37148106     0.063848782  
    946000   297.58764     -3.6469555     -2.7599772     -4.4450497      0.29345152     0.37087242     0.067088761  
    947000   298.18867     -3.6535761     -2.7648064     -4.4423159      0.28259159     0.37692995     0.06360583   
    948000   299.97727     -3.6548688     -2.7607681     -4.4386706      0.28229545     0.37355844     0.065408953  
    949000   299.93499     -3.6412127     -2.747238      -4.4401467      0.29140457     0.37558817     0.068028776  
    950000   301.89623     -3.6415858     -2.7417655     -4.4419455      0.28747142     0.37975182     0.065716707  
    951000   302.70344     -3.6516177     -2.7493914     -4.4393504      0.28525481     0.37009734     0.0665046    
    952000   298.89982     -3.6477929     -2.7569035     -4.4363638      0.28554122     0.37307075     0.066123611  
    953000   298.0992      -3.644629      -2.7561259     -4.4362139      0.28911446     0.37072096     0.066158229  
    954000   299.26139     -3.6437841     -2.7518171     -4.4409373      0.28954505     0.38035527     0.06340926   
    955000   300.96761     -3.6460492     -2.7489967     -4.4386916      0.28865872     0.37123728     0.0671658    
    956000   304.1236      -3.650251      -2.7437918     -4.4399723      0.28622293     0.37279039     0.064881653  
    957000   300.23808     -3.6359439     -2.7410658     -4.435887       0.28713219     0.37626578     0.068994907  
    958000   301.69116     -3.6480443     -2.7488352     -4.4386098      0.28741145     0.37334539     0.065976895  
    959000   299.87668     -3.656709      -2.7629081     -4.4431729      0.28342561     0.36849643     0.068667536  
    960000   299.62557     -3.6564662     -2.7634137     -4.441494       0.29034475     0.36156752     0.066221694  
    961000   298.35432     -3.6433801     -2.7541166     -4.4407808      0.28666283     0.37525751     0.066906065  
    962000   303.27567     -3.6450721     -2.7411403     -4.4347525      0.28681832     0.36986885     0.067619158  
    963000   299.60072     -3.6335839     -2.7406055     -4.4356455      0.29221655     0.37548194     0.066407231  
    964000   304.96988     -3.654137      -2.7451555     -4.4414626      0.28835379     0.36857831     0.063873441  
    965000   298.07294     -3.6417389     -2.7533142     -4.4374063      0.28809171     0.36996993     0.069645249  
    966000   299.6062      -3.6539368     -2.7609421     -4.4370634      0.28386296     0.3710231      0.064677954  
    967000   301.06212     -3.6612163     -2.7638821     -4.4415459      0.28588231     0.36547701     0.06316108   
    968000   300.79781     -3.6526834     -2.7561369     -4.4406024      0.28250582     0.37132602     0.067110248  
    969000   305.77475     -3.653221      -2.7418405     -4.4412533      0.27938031     0.37763092     0.067036089  
    970000   304.33807     -3.6499107     -2.7428123     -4.4408385      0.28497774     0.37547323     0.065640694  
    971000   301.28669     -3.6531385     -2.7551349     -4.4409554      0.28875076     0.37012454     0.065511563  
    972000   296.98514     -3.6489698     -2.7637872     -4.4417448      0.28860702     0.37698318     0.06582521   
    973000   299.50172     -3.6529561     -2.7602728     -4.4380695      0.28268256     0.37550359     0.062956663  
    974000   301.07591     -3.6510622     -2.7536869     -4.4389329      0.28156625     0.37615954     0.066243405  
    975000   302.08862     -3.648071      -2.7476773     -4.4399619      0.28784491     0.37231971     0.067523677  
    976000   302.71607     -3.6482373     -2.7459734     -4.4433817      0.28346986     0.37703257     0.067795689  
    977000   301.06771     -3.6479104     -2.7505595     -4.4422691      0.28924144     0.37587342     0.067544063  
    978000   298.50349     -3.6515422     -2.7618341     -4.4359507      0.2859916      0.37242105     0.062984552  
    979000   296.80109     -3.6516594     -2.7670254     -4.4431032      0.28432471     0.37150606     0.06768107   
    980000   297.99598     -3.6462515     -2.7580561     -4.4390643      0.28661475     0.37449952     0.065133756  
    981000   299.696       -3.6376574     -2.744395      -4.4343076      0.28974277     0.37357967     0.066703526  
    982000   300.22913     -3.6391179     -2.7442665     -4.4369712      0.28274966     0.38091818     0.068114175  
    983000   300.75646     -3.647055      -2.7506318     -4.436927       0.28677309     0.37484616     0.065458597  
    984000   298.07749     -3.650753      -2.7623146     -4.4432633      0.28627336     0.37153816     0.067217909  
    985000   296.32203     -3.6505911     -2.7673851     -4.4418024      0.29236197     0.36615094     0.067511813  
    986000   301.7811      -3.6504557     -2.7509785     -4.4427701      0.28834114     0.37267187     0.065967276  
    987000   304.41111     -3.6458118     -2.7384957     -4.4411639      0.28913975     0.37161748     0.067097728  
    988000   300.86238     -3.6456318     -2.7488929     -4.4423197      0.29340358     0.36856101     0.067636118  
    989000   297.42617     -3.6468373     -2.7603403     -4.4395137      0.2819016      0.37701203     0.066778892  
    990000   297.43752     -3.6511318     -2.7646009     -4.4432724      0.28322186     0.37682176     0.065420032  
    991000   298.36485     -3.6470353     -2.7577404     -4.4427594      0.28543765     0.37370536     0.068972384  
    992000   299.47271     -3.6346512     -2.7420543     -4.4390118      0.29375757     0.37659081     0.067229159  
    993000   303.49453     -3.6443038     -2.7397196     -4.4386849      0.28603842     0.38079965     0.066563786  
    994000   299.06025     -3.6371867     -2.7458193     -4.4409206      0.28888022     0.38503246     0.065057704  
    995000   300.05725     -3.6472776     -2.7529385     -4.4454771      0.28654402     0.37952591     0.064448532  
    996000   300.09981     -3.6502345     -2.7557686     -4.4422711      0.28837158     0.37140945     0.065839696  
    997000   303.75684     -3.6601116     -2.7547456     -4.4432334      0.28139874     0.36926448     0.06763814   
    998000   300.24543     -3.6475766     -2.7526766     -4.4395971      0.28477988     0.37221957     0.067062245  
    999000   301.4258      -3.6503785     -2.7519603     -4.4474975      0.2894377      0.37451328     0.065487021  
   1000000   301.22304     -3.6482358     -2.7504219     -4.4440731      0.29102853     0.37427504     0.064956636  
Loop time of 13249.5 on 8 procs for 1000000 steps with 12000 atoms

Performance: 3.261 ns/day, 7.361 hours/ns, 75.475 timesteps/s, 905.695 katom-step/s
100.0% CPU use with 8 MPI tasks x 1 OpenMP threads

MPI task timing breakdown:
Section |  min time  |  avg time  |  max time  |%varavg| %total
---------------------------------------------------------------
Pair    | 10731      | 11047      | 11364      | 166.3 | 83.38
Bond    | 278.67     | 284.98     | 292.98     |  28.2 |  2.15
Kspace  | 702.44     | 1018.7     | 1341.1     | 553.8 |  7.69
Neigh   | 452.89     | 453.32     | 453.6      |   1.2 |  3.42
Comm    | 389.67     | 394.4      | 399.33     |  19.5 |  2.98
Output  | 0.053683   | 0.19378    | 0.21438    |  12.0 |  0.00
Modify  | 33.149     | 33.638     | 33.932     |   4.6 |  0.25
Other   |            | 17.24      |            |       |  0.13

Nlocal:           1500 ave        1514 max        1484 min
Histogram: 1 0 0 0 3 1 0 2 0 1
Nghost:        12652.5 ave       12691 max       12614 min
Histogram: 1 2 0 0 0 2 1 0 0 2
Neighs:         813984 ave      844891 max      785149 min
Histogram: 1 2 0 0 1 1 0 1 1 1

Total # of neighbors = 6511876
Ave neighs/atom = 542.65633
Ave special neighs/atom = 8.1666667
Neighbor list builds = 22873
Dangerous builds = 0

write_data   system_modvolume_nvt.data
System init for write_data ...
PPPM initialization ...
  using 12-bit tables for long-range coulomb (src/kspace.cpp:342)
  G vector (1/distance) = 0.19260754
  grid = 15 15 15
  stencil order = 5
  estimated absolute RMS force accuracy = 0.028834096
  estimated relative force accuracy = 8.6833025e-05
  using double precision FFTW3
  3d grid and FFT values/proc = 2197 512
Generated 0 of 2346 mixed pair_coeff terms from geometric mixing rule
WARNING: Not all mixed pair coeffs generated from mixing. Use write_data with 'pair ij' option to store all pair coeffs. (src/write_data.cpp:326)
Total wall time: 3:40:50
